! PRELIMINARY bare PCB unless shell_eps > 0; see README.md
! L220 output ($1N324), with L220 and C216 excluded and C217 DNP
# Hz S RI R 50
2200000000 0.4892859178 -0.2734976937
2201000000 0.4851034592 -0.2744712771
2202000000 0.4808651003 -0.2753108001
2203000000 0.4765814425 -0.2760111322
2204000000 0.472263587 -0.2765681397
2205000000 0.4679230363 -0.2769787357
2206000000 0.4635715917 -0.2772409203
2207000000 0.4592212462 -0.2773538103
2208000000 0.4548840741 -0.2773176587
2209000000 0.4505721189 -0.2771338626
2210000000 0.4462972808 -0.2768049602
2211000000 0.442071203 -0.2763346163
2212000000 0.4379051615 -0.2757275967
2213000000 0.4338099554 -0.2749897309
2214000000 0.4297958026 -0.2741278645
2215000000 0.4258722388 -0.273149801
2216000000 0.4220480237 -0.2720642327
2217000000 0.418331053 -0.2708806633
2218000000 0.4147282792 -0.2696093206
2219000000 0.4112456398 -0.2682610622
2220000000 0.4078879967 -0.2668472731
2221000000 0.4046590845 -0.2653797579
2222000000 0.4015614703 -0.2638706272
2223000000 0.3985965247 -0.2623321807
2224000000 0.3957644049 -0.2607767866
2225000000 0.3930640494 -0.2592167598
2226000000 0.3904931857 -0.2576642394
2227000000 0.3880483496 -0.2561310669
2228000000 0.3857249173 -0.2546286667
2229000000 0.3835171492 -0.2531679295
2230000000 0.3814182458 -0.2517590999
2231000000 0.3794204149 -0.2504116703
2232000000 0.3775149491 -0.249134281
2233000000 0.3756923139 -0.2479346283
2234000000 0.3739422451 -0.2468193815
2235000000 0.3722538539 -0.2457941095
2236000000 0.3706157406 -0.2448632186
2237000000 0.3690161136 -0.2440299008
2238000000 0.3674429143 -0.2432960947
2239000000 0.3658839459 -0.2426624592
2240000000 0.3643270048 -0.2421283596
2241000000 0.3627600134 -0.2416918673
2242000000 0.3611711537 -0.241349773
2243000000 0.3595489988 -0.2410976128
2244000000 0.3578826427 -0.2409297087
2245000000 0.3561618256 -0.240839221
2246000000 0.3543770546 -0.2408182144
2247000000 0.3525197172 -0.2408577357
2248000000 0.3505821878 -0.2409479033
2249000000 0.3485579253 -0.2410780075
2250000000 0.3464415602 -0.2412366213
2251000000 0.3442289717 -0.2414117188
2252000000 0.3419173518 -0.2415908034
2253000000 0.3395052581 -0.241761041
2254000000 0.336992652 -0.2419094
2255000000 0.3343809242 -0.2420227947
2256000000 0.3316729051 -0.2420882319
2257000000 0.3288728606 -0.2420929589
2258000000 0.3259864738 -0.2420246112
2259000000 0.3230208115 -0.2418713593
2260000000 0.3199842759 -0.2416220517
2261000000 0.316886542 -0.2412663545
2262000000 0.3137384816 -0.2407948846
2263000000 0.3105520732 -0.2401993356
2264000000 0.3073402993 -0.239472596
2265000000 0.304117032 -0.2386088566
2266000000 0.3008969079 -0.237603708
2267000000 0.2976951922 -0.2364542253
2268000000 0.2945276348 -0.2351590401
2269000000 0.2914103189 -0.233718399
2270000000 0.2883595028 -0.2321342068
2271000000 0.2853914576 -0.2304100553
2272000000 0.2825223014 -0.2285512353
2273000000 0.2797678314 -0.226564734
2274000000 0.2771433564 -0.2244592149
2275000000 0.27466353 -0.2222449822
2276000000 0.2723421871 -0.2199339289
2277000000 0.2701921847 -0.2175394687
2278000000 0.2682252488 -0.2150764528
2279000000 0.2664518288 -0.2125610719
2280000000 0.2648809603 -0.2100107434
2281000000 0.263520139 -0.2074439862
2282000000 0.2623752054 -0.2048802817
2283000000 0.2614502428 -0.2023399254
2284000000 0.2607474885 -0.1998438663
2285000000 0.2602672606 -0.1974135395
2286000000 0.2600078996 -0.1950706899
2287000000 0.2599657267 -0.1928371906
2288000000 0.2601350191 -0.1907348575
2289000000 0.2605080021 -0.1887852598
2290000000 0.2610748595 -0.1870095304
2291000000 0.2618237609 -0.1854281768
2292000000 0.2627409073 -0.1840608933
2293000000 0.2638105932 -0.1829263779
2294000000 0.2650152869 -0.1820421545
2295000000 0.266335726 -0.1814244013
2296000000 0.2677510301 -0.181087789
2297000000 0.2692388275 -0.1810453283
2298000000 0.2707753963 -0.1813082287
2299000000 0.272335819 -0.1818857706
2300000000 0.2738941478 -0.1827851908
2301000000 0.2754235818 -0.1840115834
2302000000 0.2768966521 -0.1855678161
2303000000 0.2782854152 -0.187454464
2304000000 0.2795616524 -0.1896697602
2305000000 0.2806970732 -0.1922095645
2306000000 0.2816635221 -0.1950673509
2307000000 0.2824331861 -0.1982342129
2308000000 0.2829788014 -0.2016988881
2309000000 0.2832738582 -0.2054478005
2310000000 0.2832928015 -0.2094651223
2311000000 0.2830112254 -0.213732852
2312000000 0.2824060615 -0.2182309109
2313000000 0.2814557568 -0.2229372555
2314000000 0.2801404429 -0.2278280061
2315000000 0.2784420922 -0.2328775894
2316000000 0.2763446618 -0.2380588952
2317000000 0.2738342228 -0.2433434449
2318000000 0.2708990749 -0.2487015717
2319000000 0.267529844 -0.2541026095
2320000000 0.2637195635 -0.2595150904
2321000000 0.2594637376 -0.2649069484
2322000000 0.2547603867 -0.2702457277
2323000000 0.2496100739 -0.2754987949
2324000000 0.2440159134 -0.2806335514
2325000000 0.2379835597 -0.2856176468
2326000000 0.2315211786 -0.2904191897
2327000000 0.2246393995 -0.295006955
2328000000 0.2173512505 -0.2993505855
2329000000 0.2096720752 -0.3034207879
2330000000 0.2016194341 -0.3071895191
2331000000 0.1932129894 -0.3106301634
2332000000 0.1844743759 -0.3137176984
2333000000 0.1754270575 -0.3164288487
2334000000 0.166096172 -0.318742226
2335000000 0.1565083646 -0.3206384542
2336000000 0.1466916115 -0.3221002799
2337000000 0.136675036 -0.323112666
2338000000 0.126488717 -0.3236628692
2339000000 0.1161634931 -0.3237404994
2340000000 0.1057307633 -0.3233375625
2341000000 0.09522228491 -0.3224484847
2342000000 0.08466997241 -0.3210701197
2343000000 0.07410569662 -0.3192017376
2344000000 0.06356108739 -0.3168449975
2345000000 0.05306734047 -0.314003902
2346000000 0.04265503042 -0.3106847369
2347000000 0.03235393077 -0.3068959934
2348000000 0.02219284287 -0.3026482777
2349000000 0.01219943467 -0.2979542049
2350000000 0.002400090542 -0.2928282811
2351000000 -0.007180226837 -0.2872867736
2352000000 -0.01651810156 -0.2813475711
2353000000 -0.02559177579 -0.2750300335
2354000000 -0.03438124661 -0.2683548359
2355000000 -0.04286834781 -0.2613438042
2356000000 -0.05103681642 -0.2540197474
2357000000 -0.05887234343 -0.2464062853
2358000000 -0.06636260889 -0.2385276751
2359000000 -0.07349730121 -0.2304086369
2360000000 -0.08026812088 -0.2220741797
2361000000 -0.08666876892 -0.2135494314
2362000000 -0.0926949204 -0.20485947
2363000000 -0.09834418375 -0.1960291622
2364000000 -0.1036160462 -0.1870830065
2365000000 -0.1085118067 -0.1780449845
2366000000 -0.1130344959 -0.1689384205
2367000000 -0.1171887866 -0.1597858505
2368000000 -0.1209808924 -0.1506089016
2369000000 -0.1244184585 -0.1414281824
2370000000 -0.1275104444 -0.1322631852
2371000000 -0.1302670001 -0.1231322007
2372000000 -0.1326993368 -0.1140522447
2373000000 -0.1348195933 -0.1050389989
2374000000 -0.1366407007 -0.09610676384
2375000000 -0.1381762437 -0.08726842567
2376000000 -0.1394403234 -0.07853543579
2377000000 -0.1404474202 -0.06991780349
2378000000 -0.1412122587 -0.06142410132
2379000000 -0.1417496764 -0.05306148253
2380000000 -0.1420744966 -0.04483571027
2381000000 -0.1422014062 -0.03675119792
2382000000 -0.142144841 -0.02881105965
2383000000 -0.1419188771 -0.02101717073
2384000000 -0.1415371307 -0.01337023645
2385000000 -0.141012667 -0.005869868834
2386000000 -0.1403579177 0.001485329704
2387000000 -0.1395846089 0.008697677014
2388000000 -0.1387036985 0.01577031701
2389000000 -0.1377253245 0.0227071218
2390000000 -0.1366587636 0.02951259115
2391000000 -0.1355124006 0.0361917504
2392000000 -0.1342937083 0.04275004788
2393000000 -0.1330092374 0.04919325283
2394000000 -0.1316646175 0.05552735487
2395000000 -0.130264567 0.061758466
2396000000 -0.1288129126 0.06789272592
2397000000 -0.1273126183 0.0739362117
2398000000 -0.1257658214 0.07989485249
2399000000 -0.1241738775 0.08577434998
2400000000 -0.1225374113 0.09158010527
2401000000 -0.1208563738 0.09731715271
2402000000 -0.1191301055 0.1029901012
2403000000 -0.1173574026 0.1086030834
2404000000 -0.1155365881 0.1141597127
2405000000 -0.1136655848 0.1196630489
2406000000 -0.1117419905 0.1251155723
2407000000 -0.1097631537 0.1305191658
2408000000 -0.1077262496 0.1358751058
2409000000 -0.1056283551 0.1411840608
2410000000 -0.1034665224 0.1464460987
2411000000 -0.1012378497 0.1516607009
2412000000 -0.09893954927 0.156826784
2413000000 -0.09656901117 0.1619427284
2414000000 -0.09412386282 0.1670064128
2415000000 -0.09160202336 0.1720152544
2416000000 -0.08900175259 0.1769662542
2417000000 -0.08632169383 0.1818560467
2418000000 -0.08356091063 0.1866809529
2419000000 -0.08071891684 0.1914370366
2420000000 -0.07779569998 0.1961201626
2421000000 -0.07479173775 0.2007260564
2422000000 -0.07170800774 0.2052503645
2423000000 -0.06854599021 0.2096887149
2424000000 -0.06530766436 0.2140367761
2425000000 -0.06199549793 0.2182903157
2426000000 -0.05861243074 0.2224452559
2427000000 -0.05516185229 0.2264977266
2428000000 -0.05164757388 0.2304441152
2429000000 -0.04807379569 0.2342811126
2430000000 -0.04444506937 0.2380057545
2431000000 -0.0407662566 0.2416154583
2432000000 -0.03704248419 0.2451080547
2433000000 -0.03327909644 0.2484818138
2434000000 -0.02948160525 0.251735466
2435000000 -0.02565563866 0.2548682168
2436000000 -0.02180688847 0.2578797556
2437000000 -0.01794105762 0.2607702593
2438000000 -0.01406380785 0.2635403891
2439000000 -0.01018070841 0.2661912827
2440000000 -0.006297186241 0.2687245404
2441000000 -0.002418478334 0.271142206
2442000000 0.001450413239 0.2734467428
2443000000 0.005304763178 0.2756410051
2444000000 0.009140161194 0.2777282058
2445000000 0.01295254625 0.2797118793
2446000000 0.01673823645 0.2815958425
2447000000 0.02049395431 0.2833841517
2448000000 0.02421684716 0.2850810584
2449000000 0.02790450249 0.2866909629
2450000000 0.03155495814 0.2882183667
2451000000 0.03516670734 0.2896678245
2452000000 0.03873869849 0.2910438966
2453000000 0.04227032987 0.2923511013
2454000000 0.04576143933 0.2935938687
2455000000 0.04921228918 0.294776496
2456000000 0.05262354653 0.2959031057
2457000000 0.05599625928 0.296977605
2458000000 0.05933182824 0.2980036493
2459000000 0.06263197564 0.2989846089
2460000000 0.0658987104 0.2999235394
2461000000 0.06913429081 0.300823156
2462000000 0.0723411848 0.3016858119
2463000000 0.07552202853 0.3025134823
2464000000 0.07867958367 0.3033077512
2465000000 0.08181669386 0.3040698046
2466000000 0.08493624101 0.3048004273
2467000000 0.08804110174 0.305500005
2468000000 0.09113410461 0.3061685304
2469000000 0.09421798862 0.3068056146
2470000000 0.09729536325 0.3074105021
2471000000 0.1003686708 0.3079820899
2472000000 0.1034401511 0.3085189509
2473000000 0.1065118093 0.30901936
2474000000 0.1095853865 0.3094813241
2475000000 0.1126623347 0.3099026141
2476000000 0.1157437945 0.3102807995
2477000000 0.1188305773 0.3106132855
2478000000 0.1219231522 0.31089735
2479000000 0.1250216358 0.3111301834
2480000000 0.1281257874 0.3113089276
2481000000 0.131235008 0.3114307156
2482000000 0.1343483439 0.3114927106
2483000000 0.1374644937 0.3114921441
2484000000 0.1405818202 0.311426353
2485000000 0.1436983657 0.3112928145
2486000000 0.1468118703 0.3110891799
2487000000 0.1499197952 0.3108133044
2488000000 0.1530193468 0.3104632756
2489000000 0.1561075053 0.3100374382
2490000000 0.1591810547 0.3095344154
2491000000 0.1622366151 0.3089531268
2492000000 0.165270676 0.3082928028
2493000000 0.1682796317 0.3075529952
2494000000 0.1712598164 0.3067335833
2495000000 0.17420754 0.305834777
2496000000 0.1771191239 0.3048571153
2497000000 0.1799909359 0.3038014611
2498000000 0.1828194242 0.3026689924
2499000000 0.1856011502 0.30146119
2500000000 0.1883328193 0.3001798216
2501000000 0.1910113098 0.2988269224
2502000000 0.1936336993 0.2974047737
2503000000 0.1961972883 0.2959158782
2504000000 0.1986996212 0.2943629328
2505000000 0.2011385035 0.2927488004
2506000000 0.2035120163 0.2910764788
2507000000 0.2058185271 0.2893490699
2508000000 0.2080566966 0.2875697467
2509000000 0.2102254828 0.2857417206
2510000000 0.2123241402 0.2838682086
2511000000 0.214352217 0.281952401
2512000000 0.2163095471 0.2799974293
2513000000 0.2181962398 0.2780063357
2514000000 0.2200126662 0.275982044
2515000000 0.2217594419 0.2739273323
2516000000 0.2234374073 0.2718448079
2517000000 0.2250476058 0.2697368841
2518000000 0.2265912585 0.2676057606
2519000000 0.2280697383 0.2654534059
2520000000 0.2294845413 0.2632815434
2521000000 0.2308372573 0.26109164
2522000000 0.23212954 0.258884899
2523000000 0.2333630751 0.2566622556
2524000000 0.23453955 0.254424376
2525000000 0.2356606222 0.25217166
2526000000 0.2367278891 0.2499042472
2527000000 0.2377428585 0.2476220257
2528000000 0.2387069203 0.2453246451
2529000000 0.2396213195 0.243011531
2530000000 0.2404871314 0.2406819038
2531000000 0.2413052393 0.2383347989
2532000000 0.2420763135 0.2359690898
2533000000 0.2428007941 0.2335835131
2534000000 0.2434788758 0.2311766949
2535000000 0.2441104962 0.2287471791
2536000000 0.2446953268 0.2262934563
2537000000 0.2452327676 0.2238139939
2538000000 0.2457219444 0.2213072661
2539000000 0.2461617098 0.2187717842
2540000000 0.246550647 0.2162061266
2541000000 0.2468870772 0.2136089678
2542000000 0.2471690696 0.2109791072
2543000000 0.2473944547 0.2083154955
2544000000 0.2475608397 0.2056172604
2545000000 0.2476656275 0.2028837302
2546000000 0.2477060365 0.2001144549
2547000000 0.2476791242 0.1973092257
2548000000 0.2475818111 0.1944680908
2549000000 0.2474109069 0.19159137
2550000000 0.2471631377 0.1886796652
2551000000 0.2468351738 0.1857338686
2552000000 0.246423659 0.1827551677
2553000000 0.2459252385 0.1797450472
2554000000 0.2453365884 0.1767052886
2555000000 0.2446544435 0.1736379656
2556000000 0.2438756254 0.1705454375
2557000000 0.2429970684 0.16743034
2558000000 0.2420158455 0.1642955724
2559000000 0.2409291914 0.1611442835
2560000000 0.2397345245 0.1579798545
2561000000 0.238429467 0.1548058798
2562000000 0.2370118621 0.1516261467
2563000000 0.2354797892 0.1484446132
2564000000 0.2338315764 0.1452653841
2565000000 0.2320658108 0.142092687
2566000000 0.2301813453 0.1389308475
2567000000 0.2281773033 0.1357842629
2568000000 0.2260530806 0.132657378
2569000000 0.2238083441 0.1295546591
2570000000 0.2214430284 0.1264805697
2571000000 0.2189573296 0.123439547
2572000000 0.2163516966 0.1204359789
2573000000 0.2136268206 0.1174741832
2574000000 0.2107836215 0.1145583877
2575000000 0.2078232337 0.1116927126
2576000000 0.2047469894 0.1088811547
2577000000 0.2015564006 0.1061275736
2578000000 0.1982531402 0.1034356808
2579000000 0.1948390223 0.1008090305
2580000000 0.1913159814 0.09825101341
2581000000 0.1876860517 0.0957648526
2582000000 0.1839513468 0.09335360236
2583000000 0.1801140387 0.09102014916
2584000000 0.176176338 0.08876721526
2585000000 0.1721404751 0.08659736453
2586000000 0.1680086823 0.08451301056
2587000000 0.1637831768 0.0825164268
2588000000 0.159466146 0.0806097586
2589000000 0.1550597344 0.07879503695
2590000000 0.150566032 0.07707419363
2591000000 0.1459870656 0.07544907772
2592000000 0.1413247915 0.07392147289
2593000000 0.1365810914 0.07249311557
2594000000 0.1317577702 0.0711657134
2595000000 0.1268565562 0.06994096393
2596000000 0.1218791041 0.06882057307
2597000000 0.1168270004 0.06780627315
2598000000 0.1117017707 0.06689984026
2599000000 0.1065048901 0.06610311058
2600000000 0.1012377949 0.06541799546
2601000000 0.09590189694 0.06484649495
2602000000 0.09049859964 0.06439070968
2603000000 0.08502931535 0.06405285068
2604000000 0.07949548454 0.06383524716
2605000000 0.07389859593 0.06374035196
2606000000 0.0682402076 0.06377074451
2607000000 0.06252196868 0.06392913135
2608000000 0.05674564143 0.06421834397
2609000000 0.0509131234 0.06464133404
2610000000 0.04502646923 0.06520116591
2611000000 0.03908791208 0.06590100654
2612000000 0.03309988407 0.0667441128
2613000000 0.02706503567 0.06773381629
2614000000 0.02098625372 0.06887350572
2615000000 0.01486667772 0.07016660713
2616000000 0.008709714227 0.07161656198
2617000000 0.002519049159 0.07322680343
2618000000 -0.003701342307 0.07500073091
2619000000 -0.009947188328 0.07694168339
2620000000 -0.01621391568 0.07905291144
2621000000 -0.02249664786 0.0813375485
2622000000 -0.02879020605 0.08379858162
2623000000 -0.0350891131 0.08643882185
2624000000 -0.04138760048 0.08926087483
2625000000 -0.04767961822 0.09226711165
2626000000 -0.05395884782 0.09545964049
2627000000 -0.06021871807 0.09884027913
2628000000 -0.06645242363 0.1024105289
2629000000 -0.07265294629 0.1061715501
2630000000 -0.07881307874 0.1101241394
2631000000 -0.08492545067 0.1142687091
2632000000 -0.09098255689 0.118605269
2633000000 -0.09697678745 0.1231334108
2634000000 -0.1029004592 0.1278522949
2635000000 -0.1087458488 0.1327606408
2636000000 -0.1145052267 0.1378567195
2637000000 -0.120170892 0.1431383502
2638000000 -0.1257352073 0.1486028993
2639000000 -0.1311906342 0.1542472827
2640000000 -0.1365297682 0.1600679721
2641000000 -0.1417453733 0.1660610035
2642000000 -0.1468304153 0.1722219894
2643000000 -0.1517780946 0.178546134
2644000000 -0.1565818769 0.1850282507
2645000000 -0.1612355226 0.1916627836
2646000000 -0.1657331142 0.1984438298
2647000000 -0.1700690809 0.2053651659
2648000000 -0.1742382216 0.212420275
2649000000 -0.1782357246 0.2196023767
2650000000 -0.1820571847 0.2269044578
2651000000 -0.1856986175 0.2343193051
2652000000 -0.1891564706 0.2418395384
2653000000 -0.1924276316 0.2494576448
2654000000 -0.1955094328 0.2571660128
2655000000 -0.1983996532 0.2649569673
2656000000 -0.2010965172 0.2728228031
2657000000 -0.2035986899 0.2807558189
2658000000 -0.2059052698 0.2887483501
2659000000 -0.2080157786 0.2967928001
2660000000 -0.2099301481 0.3048816707
2661000000 -0.2116487048 0.3130075905
2662000000 -0.2131721524 0.3211633413
2663000000 -0.2145015511 0.3293418828
2664000000 -0.2156382965 0.3375363749
2665000000 -0.2165840961 0.3457401966
2666000000 -0.2173409443 0.3539469642
2667000000 -0.2179110967 0.3621505449
2668000000 -0.218297044 0.3703450689
2669000000 -0.2185014844 0.3785249382
2670000000 -0.2185272967 0.3866848325
2671000000 -0.2183775134 0.3948197132
2672000000 -0.2180552938 0.4029248232
2673000000 -0.2175638982 0.4109956859
2674000000 -0.2169066628 0.4190280998
2675000000 -0.2160869757 0.4270181326
2676000000 -0.2151082547 0.4349621117
2677000000 -0.2139739266 0.4428566134
2678000000 -0.2126874077 0.4506984503
2679000000 -0.2112520874 0.4584846568
2680000000 -0.2096713125 0.4662124736
2681000000 -0.2079483754 0.4738793312
2682000000 -0.2060865028 0.4814828323
2683000000 -0.2040888479 0.4890207338
2684000000 -0.2019584848 0.4964909289
2685000000 -0.1996984047 0.5038914286
2686000000 -0.197311515 0.5112203439
2687000000 -0.19480064 0.5184758684
2688000000 -0.1921685243 0.5256562619
2689000000 -0.1894178378 0.5327598345
2690000000 -0.1865511825 0.5397849326
2691000000 -0.1835711016 0.5467299258
2692000000 -0.1804800889 0.5535931954
2693000000 -0.1772806005 0.5603731252
2694000000 -0.173975067 0.5670680935
2695000000 -0.1705659065 0.5736764675
2696000000 -0.1670555388 0.5801965996
2697000000 -0.1634463985 0.5866268256
2698000000 -0.1597409496 0.5929654655
2699000000 -0.1559416989 0.5992108257
2700000000 -0.1520512094 0.6053612039
