! PRELIMINARY bare PCB unless shell_eps > 0; see README.md
! L220 output ($1N324); all Gerber copper, components omitted (C216/L220/C217 not populated)
# Hz S RI R 50
2200000000 -0.3519844999 -0.3712671011
2201000000 -0.356722704 -0.3659212365
2202000000 -0.3614108637 -0.3605269236
2203000000 -0.3660483645 -0.3550847651
2204000000 -0.3706346009 -0.3495953728
2205000000 -0.3751689763 -0.3440593673
2206000000 -0.3796509036 -0.3384773782
2207000000 -0.3840798049 -0.3328500436
2208000000 -0.388455112 -0.3271780102
2209000000 -0.392776266 -0.321461933
2210000000 -0.3970427183 -0.3157024751
2211000000 -0.4012539297 -0.3099003076
2212000000 -0.4054093715 -0.3040561097
2213000000 -0.4095085248 -0.2981705678
2214000000 -0.4135508813 -0.2922443762
2215000000 -0.417535943 -0.2862782362
2216000000 -0.4214632224 -0.2802728566
2217000000 -0.4253322426 -0.2742289527
2218000000 -0.4291425376 -0.2681472469
2219000000 -0.4328936521 -0.2620284681
2220000000 -0.4365851419 -0.2558733515
2221000000 -0.4402165737 -0.2496826388
2222000000 -0.4437875254 -0.2434570775
2223000000 -0.4472975864 -0.237197421
2224000000 -0.450746357 -0.2309044283
2225000000 -0.4541334492 -0.2245788639
2226000000 -0.4574584864 -0.2182214978
2227000000 -0.4607211036 -0.2118331046
2228000000 -0.4639209474 -0.2054144642
2229000000 -0.4670576763 -0.198966361
2230000000 -0.4701309604 -0.1924895839
2231000000 -0.4731404816 -0.1859849261
2232000000 -0.476085934 -0.1794531849
2233000000 -0.4789670233 -0.1728951615
2234000000 -0.4817834676 -0.1663116607
2235000000 -0.4845349966 -0.1597034908
2236000000 -0.4872213527 -0.1530714635
2237000000 -0.4898422899 -0.1464163935
2238000000 -0.4923975747 -0.1397390983
2239000000 -0.4948869858 -0.1330403982
2240000000 -0.4973103142 -0.1263211158
2241000000 -0.4996673629 -0.1195820761
2242000000 -0.5019579476 -0.1128241062
2243000000 -0.5041818961 -0.1060480349
2244000000 -0.5063390486 -0.09925469261
2245000000 -0.5084292577 -0.09244491137
2246000000 -0.5104523882 -0.08561952433
2247000000 -0.5124083174 -0.07877936568
2248000000 -0.5142969352 -0.07192527044
2249000000 -0.5161181433 -0.06505807424
2250000000 -0.5178718564 -0.05817861313
2251000000 -0.5195580012 -0.05128772336
2252000000 -0.5211765167 -0.0443862412
2253000000 -0.5227273544 -0.03747500269
2254000000 -0.5242104781 -0.0305548435
2255000000 -0.5256258637 -0.02362659868
2256000000 -0.5269734996 -0.01669110248
2257000000 -0.5282533863 -0.009749188133
2258000000 -0.5294655365 -0.00280168768
2259000000 -0.530609975 0.004150568251
2260000000 -0.5316867388 0.01110675063
2261000000 -0.532695877 0.01806603223
2262000000 -0.5336374506 0.02502758783
2263000000 -0.5345115326 0.03199059437
2264000000 -0.535318208 0.0389542312
2265000000 -0.5360575736 0.04591768023
2266000000 -0.5367297379 0.05288012616
2267000000 -0.5373348214 0.05984075661
2268000000 -0.5378729559 0.06679876238
2269000000 -0.538344285 0.07375333757
2270000000 -0.5387489638 0.08070367983
2271000000 -0.5390871589 0.08764899047
2272000000 -0.5393590481 0.09458847471
2273000000 -0.5395648206 0.1015213418
2274000000 -0.5397046767 0.1084468053
2275000000 -0.5397788279 0.1153640831
2276000000 -0.5397874965 0.1222723977
2277000000 -0.5397309161 0.1291709764
2278000000 -0.5396093306 0.1360590514
2279000000 -0.539422995 0.1429358601
2280000000 -0.5391721748 0.1498006449
2281000000 -0.5388571458 0.1566526539
2282000000 -0.5384781946 0.1634911408
2283000000 -0.5380356176 0.1703153647
2284000000 -0.5375297217 0.1771245912
2285000000 -0.5369608237 0.1839180914
2286000000 -0.5363292504 0.1906951429
2287000000 -0.5356353383 0.1974550296
2288000000 -0.5348794336 0.204197042
2289000000 -0.5340618922 0.2109204773
2290000000 -0.5331830791 0.2176246392
2291000000 -0.5322433688 0.2243088386
2292000000 -0.531243145 0.2309723935
2293000000 -0.5301828004 0.2376146291
2294000000 -0.5290627363 0.2442348778
2295000000 -0.5278833631 0.2508324796
2296000000 -0.5266450995 0.2574067822
2297000000 -0.5253483729 0.2639571409
2298000000 -0.5239936188 0.2704829187
2299000000 -0.5225812809 0.276983487
2300000000 -0.521111811 0.2834582249
2301000000 -0.5195856687 0.2899065198
2302000000 -0.5180033212 0.2963277676
2303000000 -0.5163652432 0.3027213724
2304000000 -0.5146719172 0.3090867468
2305000000 -0.5129238323 0.3154233121
2306000000 -0.5111214852 0.3217304985
2307000000 -0.5092653791 0.3280077447
2308000000 -0.5073560243 0.3342544984
2309000000 -0.5053939374 0.3404702165
2310000000 -0.5033796416 0.3466543646
2311000000 -0.5013136661 0.3528064178
2312000000 -0.4991965465 0.3589258603
2313000000 -0.4970288241 0.3650121857
2314000000 -0.4948110459 0.3710648967
2315000000 -0.4925437647 0.3770835058
2316000000 -0.4902275384 0.3830675349
2317000000 -0.4878629304 0.3890165155
2318000000 -0.4854505091 0.3949299887
2319000000 -0.4829908475 0.4008075054
2320000000 -0.4804845237 0.406648626
2321000000 -0.4779321202 0.4124529211
2322000000 -0.4753342237 0.4182199709
2323000000 -0.4726914252 0.4239493655
2324000000 -0.4700043199 0.4296407051
2325000000 -0.4672735064 0.4352935997
2326000000 -0.4644995874 0.4409076693
2327000000 -0.4616831688 0.4464825442
2328000000 -0.4588248598 0.4520178645
2329000000 -0.455925273 0.4575132804
2330000000 -0.4529850236 0.4629684525
2331000000 -0.4500047299 0.4683830513
2332000000 -0.4469850125 0.4737567573
2333000000 -0.4439264946 0.4790892615
2334000000 -0.4408298016 0.4843802649
2335000000 -0.437695561 0.4896294787
2336000000 -0.4345244022 0.4948366242
2337000000 -0.4313169562 0.500001433
2338000000 -0.4280738558 0.5051236468
2339000000 -0.4247957348 0.5102030175
2340000000 -0.4214832285 0.515239307
2341000000 -0.4181369732 0.5202322876
2342000000 -0.414757606 0.5251817416
2343000000 -0.4113457646 0.5300874613
2344000000 -0.4079020874 0.5349492492
2345000000 -0.404427213 0.539766918
2346000000 -0.4009217801 0.54454029
2347000000 -0.3973864277 0.5492691979
2348000000 -0.3938217945 0.5539534842
2349000000 -0.3902285187 0.5585930014
2350000000 -0.3866072382 0.5631876117
2351000000 -0.3829585904 0.5677371874
2352000000 -0.3792832115 0.5722416104
2353000000 -0.3755817371 0.5767007725
2354000000 -0.3718548014 0.581114575
2355000000 -0.3681030375 0.585482929
2356000000 -0.364327077 0.5898057552
2357000000 -0.3605275499 0.5940829836
2358000000 -0.3567050844 0.5983145541
2359000000 -0.3528603068 0.6025004155
2360000000 -0.3489938415 0.6066405262
2361000000 -0.3451063106 0.610734854
2362000000 -0.3411983337 0.6147833756
2363000000 -0.3372705282 0.6187860769
2364000000 -0.3333235087 0.622742953
2365000000 -0.3293578871 0.6266540077
2366000000 -0.3253742721 0.630519254
2367000000 -0.3213732699 0.6343387134
2368000000 -0.317355483 0.6381124162
2369000000 -0.3133215109 0.6418404015
2370000000 -0.3092719494 0.6455227168
2371000000 -0.305207391 0.6491594178
2372000000 -0.3011284243 0.652750569
2373000000 -0.2970356341 0.6562962429
2374000000 -0.2929296012 0.6597965201
2375000000 -0.2888109024 0.6632514894
2376000000 -0.2846801104 0.6666612474
2377000000 -0.2805377934 0.6700258987
2378000000 -0.2763845153 0.6733455555
2379000000 -0.2722208353 0.6766203378
2380000000 -0.2680473083 0.679850373
2381000000 -0.263864484 0.6830357958
2382000000 -0.2596729076 0.6861767486
2383000000 -0.2554731191 0.6892733804
2384000000 -0.2512656537 0.6923258479
2385000000 -0.2470510413 0.6953343142
2386000000 -0.2428298064 0.6982989497
2387000000 -0.2386024684 0.7012199312
2388000000 -0.2343695412 0.7040974422
2389000000 -0.2301315331 0.7069316727
2390000000 -0.2258889468 0.709722819
2391000000 -0.2216422796 0.7124710838
2392000000 -0.2173920225 0.7151766756
2393000000 -0.2131386612 0.7178398091
2394000000 -0.2088826751 0.7204607048
2395000000 -0.2046245379 0.723039589
2396000000 -0.2003647169 0.7255766934
2397000000 -0.1961036736 0.7280722553
2398000000 -0.1918418632 0.7305265173
2399000000 -0.1875797346 0.7329397273
2400000000 -0.1833177305 0.7353121381
2401000000 -0.1790562871 0.7376440076
2402000000 -0.1747958342 0.7399355983
2403000000 -0.1705367953 0.7421871776
2404000000 -0.1662795871 0.7443990173
2405000000 -0.1620246202 0.7465713937
2406000000 -0.157772298 0.7487045872
2407000000 -0.1535230177 0.7507988826
2408000000 -0.1492771697 0.7528545685
2409000000 -0.1450351377 0.7548719374
2410000000 -0.1407972985 0.7568512856
2411000000 -0.1365640223 0.7587929129
2412000000 -0.1323356724 0.7606971226
2413000000 -0.1281126054 0.7625642213
2414000000 -0.1238951709 0.764394519
2415000000 -0.1196837118 0.7661883284
2416000000 -0.1154785638 0.7679459653
2417000000 -0.1112800561 0.7696677484
2418000000 -0.1070885107 0.7713539989
2419000000 -0.1029042429 0.7730050406
2420000000 -0.09872756087 0.7746211995
2421000000 -0.09455876595 0.7762028041
2422000000 -0.09039815257 0.7777501849
2423000000 -0.08624600819 0.7792636744
2424000000 -0.08210261338 0.780743607
2425000000 -0.07796824177 0.7821903187
2426000000 -0.0738431601 0.7836041471
2427000000 -0.06972762819 0.7849854316
2428000000 -0.06562189901 0.7863345124
2429000000 -0.06152621862 0.7876517314
2430000000 -0.05744082628 0.7889374312
2431000000 -0.05336595437 0.7901919556
2432000000 -0.0493018285 0.7914156491
2433000000 -0.04524866749 0.7926088571
2434000000 -0.04120668341 0.7937719253
2435000000 -0.03717608159 0.7949052
2436000000 -0.03315706069 0.796009028
2437000000 -0.02914981271 0.7970837559
2438000000 -0.025154523 0.7981297309
2439000000 -0.02117137037 0.7991472999
2440000000 -0.01720052705 0.8001368096
2441000000 -0.0132421588 0.8010986067
2442000000 -0.009296424891 0.8020330373
2443000000 -0.005363478209 0.8029404472
2444000000 -0.001443465266 0.8038211815
2445000000 0.002463473732 0.8046755847
2446000000 0.006357204845 0.8055040004
2447000000 0.01023760033 0.8063067714
2448000000 0.01410453862 0.8070842394
2449000000 0.0179579042 0.8078367451
2450000000 0.02179758762 0.8085646277
2451000000 0.02562348539 0.8092682254
2452000000 0.02943549996 0.8099478749
2453000000 0.03323353957 0.8106039112
2454000000 0.03701751831 0.811236668
2455000000 0.04078735592 0.811846477
2456000000 0.04454297784 0.8124336683
2457000000 0.04828431505 0.8129985701
2458000000 0.05201130404 0.8135415085
2459000000 0.05572388676 0.8140628076
2460000000 0.05942201048 0.8145627894
2461000000 0.06310562777 0.8150417737
2462000000 0.06677469642 0.8155000779
2463000000 0.0704291793 0.815938017
2464000000 0.07406904439 0.8163559037
2465000000 0.0776942646 0.816754048
2466000000 0.08130481773 0.8171327573
2467000000 0.08490068639 0.8174923364
2468000000 0.08848185792 0.8178330873
2469000000 0.09204832429 0.8181553092
2470000000 0.09560008202 0.8184592983
2471000000 0.09913713209 0.818745348
2472000000 0.1026594799 0.8190137487
2473000000 0.1061671351 0.8192647876
2474000000 0.1096601115 0.8194987489
2475000000 0.1131384271 0.8197159134
2476000000 0.116602104 0.8199165591
2477000000 0.120051168 0.8201009602
2478000000 0.123485649 0.8202693879
2479000000 0.1269055805 0.8204221099
2480000000 0.1303109997 0.8205593905
2481000000 0.1337019473 0.8206814906
2482000000 0.1370784677 0.8207886673
2483000000 0.1404406083 0.8208811746
2484000000 0.1437884203 0.8209592626
2485000000 0.1471219576 0.8210231778
2486000000 0.1504412775 0.8210731631
2487000000 0.1537464402 0.8211094578
2488000000 0.1570375089 0.8211322974
2489000000 0.1603145495 0.8211419136
2490000000 0.1635776307 0.8211385344
2491000000 0.166826824 0.8211223841
2492000000 0.170062203 0.821093683
2493000000 0.1732838442 0.8210526477
2494000000 0.1764918263 0.8209994911
2495000000 0.1796862301 0.8209344219
2496000000 0.1828671387 0.8208576452
2497000000 0.1860346373 0.8207693621
2498000000 0.1891888131 0.8206697699
2499000000 0.1923297551 0.820559062
2500000000 0.1954575541 0.8204374278
2501000000 0.1985723027 0.8203050528
2502000000 0.2016740949 0.8201621188
2503000000 0.2047630266 0.8200088035
2504000000 0.2078391946 0.8198452807
2505000000 0.2109026976 0.8196717205
2506000000 0.2139536351 0.819488289
2507000000 0.2169921081 0.8192951482
2508000000 0.2200182184 0.8190924566
2509000000 0.223032069 0.8188803687
2510000000 0.2260337637 0.8186590351
2511000000 0.2290234071 0.8184286027
2512000000 0.2320011046 0.8181892144
2513000000 0.2349669623 0.8179410094
2514000000 0.2379210866 0.8176841233
2515000000 0.2408635847 0.8174186878
2516000000 0.2437945641 0.8171448307
2517000000 0.2467141324 0.8168626765
2518000000 0.2496223978 0.8165723456
2519000000 0.2525194685 0.8162739552
2520000000 0.2554054526 0.8159676186
2521000000 0.2582804586 0.8156534455
2522000000 0.2611445946 0.8153315421
2523000000 0.2639979687 0.8150020113
2524000000 0.2668406888 0.8146649522
2525000000 0.2696728625 0.8143204607
2526000000 0.272494597 0.8139686291
2527000000 0.2753059991 0.8136095465
2528000000 0.2781071752 0.8132432985
2529000000 0.280898231 0.8128699677
2530000000 0.2836792716 0.8124896332
2531000000 0.2864504015 0.8121023711
2532000000 0.2892117245 0.8117082541
2533000000 0.2919633434 0.811307352
2534000000 0.2947053601 0.8108997316
2535000000 0.2974378759 0.8104854565
2536000000 0.3001609909 0.8100645876
2537000000 0.302874804 0.8096371825
2538000000 0.3055794132 0.8092032964
2539000000 0.3082749154 0.8087629814
2540000000 0.3109614062 0.808316287
2541000000 0.3136389799 0.8078632599
2542000000 0.3163077296 0.8074039442
2543000000 0.3189677469 0.8069383816
2544000000 0.3216191223 0.806466611
2545000000 0.3242619446 0.8059886689
2546000000 0.3268963012 0.8055045895
2547000000 0.329522278 0.8050144047
2548000000 0.3321399593 0.8045181439
2549000000 0.3347494278 0.8040158344
2550000000 0.3373507646 0.8035075013
2551000000 0.3399440492 0.8029931675
2552000000 0.3425293592 0.8024728541
2553000000 0.3451067707 0.80194658
2554000000 0.3476763578 0.8014143622
2555000000 0.3502381931 0.8008762159
2556000000 0.3527923471 0.8003321544
2557000000 0.3553388886 0.7997821895
2558000000 0.3578778844 0.7992263309
2559000000 0.3604093997 0.7986645871
2560000000 0.3629334975 0.7980969649
2561000000 0.365450239 0.7975234695
2562000000 0.3679596834 0.7969441049
2563000000 0.370461888 0.7963588735
2564000000 0.3729569081 0.7957677765
2565000000 0.375444797 0.7951708141
2566000000 0.3779256059 0.7945679849
2567000000 0.3803993842 0.7939592868
2568000000 0.3828661791 0.7933447163
2569000000 0.3853260359 0.7927242692
2570000000 0.3877789979 0.7920979402
2571000000 0.3902251061 0.7914657233
2572000000 0.3926643997 0.7908276115
2573000000 0.3950969159 0.7901835974
2574000000 0.3975226897 0.7895336726
2575000000 0.3999417542 0.7888778282
2576000000 0.4023541403 0.7882160549
2577000000 0.4047598771 0.7875483426
2578000000 0.4071589916 0.7868746811
2579000000 0.4095515086 0.7861950597
2580000000 0.4119374513 0.7855094673
2581000000 0.4143168404 0.7848178928
2582000000 0.4166896951 0.7841203246
2583000000 0.4190560324 0.7834167511
2584000000 0.4214158672 0.7827071607
2585000000 0.4237692129 0.7819915418
2586000000 0.4261160806 0.7812698826
2587000000 0.4284564797 0.7805421716
2588000000 0.4307904176 0.7798083974
2589000000 0.4331178999 0.7790685487
2590000000 0.4354389303 0.7783226147
2591000000 0.4377535109 0.7775705846
2592000000 0.4400616418 0.776812448
2593000000 0.4423633214 0.7760481952
2594000000 0.4446585463 0.7752778165
2595000000 0.4469473116 0.774501303
2596000000 0.4492296105 0.7737186464
2597000000 0.4515054347 0.7729298387
2598000000 0.4537747741 0.7721348727
2599000000 0.4560376172 0.7713337419
2600000000 0.4582939509 0.7705264406
2601000000 0.4605437606 0.7697129636
2602000000 0.4627870301 0.7688933068
2603000000 0.4650237418 0.7680674667
2604000000 0.4672538767 0.7672354408
2605000000 0.4694774146 0.7663972277
2606000000 0.4716943337 0.7655528266
2607000000 0.4739046109 0.764702238
2608000000 0.4761082221 0.7638454632
2609000000 0.4783051417 0.7629825048
2610000000 0.480495343 0.7621133662
2611000000 0.4826787984 0.7612380523
2612000000 0.4848554788 0.7603565688
2613000000 0.4870253544 0.7594689229
2614000000 0.4891883941 0.7585751227
2615000000 0.491344566 0.7576751777
2616000000 0.4934938374 0.7567690988
2617000000 0.4956361743 0.755856898
2618000000 0.4977715424 0.7549385886
2619000000 0.4998999061 0.7540141853
2620000000 0.5020212295 0.7530837042
2621000000 0.5041354757 0.7521471626
2622000000 0.5062426072 0.7512045795
2623000000 0.5083425861 0.750255975
2624000000 0.5104353737 0.7493013707
2625000000 0.5125209309 0.7483407897
2626000000 0.5145992181 0.7473742566
2627000000 0.5166701953 0.7464017972
2628000000 0.5187338222 0.7454234391
2629000000 0.520790058 0.7444392112
2630000000 0.5228388619 0.7434491438
2631000000 0.5248801925 0.7424532689
2632000000 0.5269140086 0.7414516198
2633000000 0.5289402687 0.7404442314
2634000000 0.5309589311 0.7394311402
2635000000 0.5329699544 0.738412384
2636000000 0.5349732968 0.7373880022
2637000000 0.5369689169 0.7363580357
2638000000 0.5389567732 0.7353225269
2639000000 0.5409368245 0.7342815196
2640000000 0.5429090296 0.7332350594
2641000000 0.5448733478 0.732183193
2642000000 0.5468297385 0.7311259688
2643000000 0.5487781615 0.7300634365
2644000000 0.5507185771 0.7289956475
2645000000 0.5526509457 0.7279226545
2646000000 0.5545752286 0.7268445116
2647000000 0.5564913873 0.7257612744
2648000000 0.5583993839 0.7246729999
2649000000 0.5602991814 0.7235797465
2650000000 0.562190743 0.7224815738
2651000000 0.5640740329 0.7213785431
2652000000 0.565949016 0.7202707167
2653000000 0.5678156578 0.7191581584
2654000000 0.5696739248 0.7180409333
2655000000 0.5715237843 0.7169191078
2656000000 0.5733652044 0.7157927494
2657000000 0.5751981542 0.7146619269
2658000000 0.5770226038 0.7135267105
2659000000 0.5788385243 0.7123871713
2660000000 0.5806458878 0.7112433817
2661000000 0.5824446674 0.7100954151
2662000000 0.5842348375 0.7089433463
2663000000 0.5860163736 0.7077872508
2664000000 0.5877892521 0.7066272053
2665000000 0.5895534511 0.7054632876
2666000000 0.5913089495 0.7042955764
2667000000 0.5930557277 0.7031241512
2668000000 0.5947937674 0.7019490927
2669000000 0.5965230515 0.7007704821
2670000000 0.5982435643 0.6995884019
2671000000 0.5999552917 0.698402935
2672000000 0.6016582207 0.6972141654
2673000000 0.6033523399 0.6960221774
2674000000 0.6050376393 0.6948270565
2675000000 0.6067141104 0.6936288886
2676000000 0.6083817463 0.6924277601
2677000000 0.6100405416 0.6912237583
2678000000 0.6116904922 0.6900169708
2679000000 0.6133315958 0.6888074857
2680000000 0.6149638517 0.6875953916
2681000000 0.6165872608 0.6863807778
2682000000 0.6182018253 0.6851637335
2683000000 0.6198075495 0.6839443485
2684000000 0.621404439 0.6827227129
2685000000 0.6229925012 0.6814989171
2686000000 0.6245717452 0.6802730515
2687000000 0.6261421815 0.6790452068
2688000000 0.6277038227 0.677815474
2689000000 0.6292566828 0.6765839438
2690000000 0.6308007776 0.6753507072
2691000000 0.6323361245 0.6741158552
2692000000 0.6338627428 0.6728794787
2693000000 0.6353806533 0.6716416684
2694000000 0.6368898787 0.6704025151
2695000000 0.6383904433 0.6691621092
2696000000 0.6398823731 0.6679205409
2697000000 0.6413656959 0.6666779004
2698000000 0.6428404412 0.6654342772
2699000000 0.6443066401 0.6641897607
2700000000 0.6457643255 0.6629444398
