! PRELIMINARY bare PCB unless shell_eps > 0; see README.md
! L220 output ($1N324); all Gerber copper, components omitted (C216/L220/C217 not populated)
# Hz S RI R 50
2200000000 -0.3127911138 -0.360074075
2201000000 -0.3174735423 -0.3551663226
2202000000 -0.3221109257 -0.3502123526
2203000000 -0.3267026989 -0.3452126982
2204000000 -0.3312483044 -0.3401679008
2205000000 -0.3357471925 -0.3350785096
2206000000 -0.3401988218 -0.3299450818
2207000000 -0.344602659 -0.3247681822
2208000000 -0.348958179 -0.3195483832
2209000000 -0.3532648653 -0.3142862647
2210000000 -0.3575222096 -0.3089824137
2211000000 -0.3617297128 -0.3036374244
2212000000 -0.3658868839 -0.2982518981
2213000000 -0.3699932413 -0.2928264428
2214000000 -0.3740483121 -0.2873616733
2215000000 -0.3780516325 -0.2818582109
2216000000 -0.3820027479 -0.2763166833
2217000000 -0.3859012128 -0.2707377244
2218000000 -0.3897465915 -0.2651219742
2219000000 -0.3935384572 -0.2594700787
2220000000 -0.3972763929 -0.2537826896
2221000000 -0.4009599913 -0.2480604642
2222000000 -0.4045888547 -0.2423040654
2223000000 -0.4081625951 -0.2365141612
2224000000 -0.4116808345 -0.2306914247
2225000000 -0.4151432048 -0.2248365343
2226000000 -0.4185493477 -0.2189501728
2227000000 -0.4218989153 -0.2130330278
2228000000 -0.4251915697 -0.2070857914
2229000000 -0.428426983 -0.20110916
2230000000 -0.4316048378 -0.1951038341
2231000000 -0.434724827 -0.1890705181
2232000000 -0.4377866537 -0.1830099202
2233000000 -0.4407900315 -0.1769227524
2234000000 -0.4437346845 -0.1708097299
2235000000 -0.4466203472 -0.1646715713
2236000000 -0.4494467648 -0.1585089983
2237000000 -0.4522136929 -0.1523227355
2238000000 -0.4549208978 -0.1461135103
2239000000 -0.4575681565 -0.1398820527
2240000000 -0.4601552566 -0.1336290949
2241000000 -0.4626819964 -0.1273553716
2242000000 -0.4651481849 -0.1210616193
2243000000 -0.4675536419 -0.1147485768
2244000000 -0.469898198 -0.1084169841
2245000000 -0.4721816944 -0.102067583
2246000000 -0.4744039832 -0.09570111677
2247000000 -0.4765649273 -0.08931832957
2248000000 -0.4786644004 -0.08291996675
2249000000 -0.4807022868 -0.07650677448
2250000000 -0.4826784819 -0.07007949955
2251000000 -0.4845928917 -0.06363888925
2252000000 -0.486445433 -0.05718569118
2253000000 -0.4882360333 -0.05072065309
2254000000 -0.489964631 -0.04424452268
2255000000 -0.491631175 -0.03775804744
2256000000 -0.4932356253 -0.0312619745
2257000000 -0.4947779522 -0.02475705042
2258000000 -0.4962581369 -0.01824402104
2259000000 -0.4976761711 -0.01172363133
2260000000 -0.4990320572 -0.005196625181
2261000000 -0.5003258082 0.001336254741
2262000000 -0.5015574474 0.007874267157
2263000000 -0.502727009 0.01441667236
2264000000 -0.5038345372 0.02096273235
2265000000 -0.504880087 0.02751171104
2266000000 -0.5058637235 0.03406287439
2267000000 -0.5067855221 0.04061549058
2268000000 -0.5076455687 0.04716883014
2269000000 -0.5084439591 0.05372216617
2270000000 -0.5091807994 0.06027477446
2271000000 -0.5098562058 0.06682593363
2272000000 -0.5104703044 0.07337492534
2273000000 -0.5110232313 0.07992103438
2274000000 -0.5115151324 0.08646354889
2275000000 -0.5119461636 0.09300176045
2276000000 -0.5123164902 0.09953496427
2277000000 -0.5126262876 0.1060624593
2278000000 -0.5128757403 0.1125835485
2279000000 -0.5130650425 0.1190975387
2280000000 -0.5131943979 0.1256037412
2281000000 -0.5132640194 0.1321014713
2282000000 -0.5132741291 0.1385900491
2283000000 -0.5132249584 0.1450687991
2284000000 -0.5131167474 0.1515370507
2285000000 -0.5129497456 0.1579941382
2286000000 -0.512724211 0.1644394008
2287000000 -0.5124404106 0.1708721828
2288000000 -0.5120986198 0.1772918341
2289000000 -0.5116991227 0.1836977097
2290000000 -0.5112422119 0.1900891703
2291000000 -0.5107281882 0.1964655822
2292000000 -0.5101573607 0.2028263174
2293000000 -0.5095300465 0.2091707539
2294000000 -0.5088465709 0.2154982758
2295000000 -0.508107267 0.221808273
2296000000 -0.5073124755 0.2281001421
2297000000 -0.506462545 0.2343732855
2298000000 -0.5055578315 0.2406271126
2299000000 -0.5045986984 0.2468610389
2300000000 -0.5035855165 0.2530744869
2301000000 -0.5025186636 0.2592668857
2302000000 -0.5013985247 0.2654376712
2303000000 -0.5002254915 0.2715862864
2304000000 -0.4989999628 0.2777121813
2305000000 -0.4977223437 0.2838148129
2306000000 -0.4963930459 0.2898936456
2307000000 -0.4950124878 0.2959481511
2308000000 -0.4935810937 0.3019778084
2309000000 -0.4920992941 0.3079821039
2310000000 -0.4905675256 0.3139605318
2311000000 -0.4889862305 0.3199125937
2312000000 -0.4873558568 0.325837799
2313000000 -0.4856768583 0.3317356649
2314000000 -0.483949694 0.3376057164
2315000000 -0.4821748283 0.3434474863
2316000000 -0.4803527306 0.3492605155
2317000000 -0.4784838755 0.355044353
2318000000 -0.4765687424 0.3607985555
2319000000 -0.4746078153 0.3665226884
2320000000 -0.4726015829 0.3722163247
2321000000 -0.4705505384 0.3778790462
2322000000 -0.4684551792 0.3835104425
2323000000 -0.4663160067 0.3891101118
2324000000 -0.4641335265 0.3946776607
2325000000 -0.4619082481 0.400212704
2326000000 -0.4596406844 0.4057148652
2327000000 -0.4573313522 0.411183776
2328000000 -0.4549807715 0.4166190769
2329000000 -0.4525894656 0.4220204167
2330000000 -0.450157961 0.4273874529
2331000000 -0.4476867871 0.4327198515
2332000000 -0.4451764761 0.4380172873
2333000000 -0.442627563 0.4432794435
2334000000 -0.4400405852 0.448506012
2335000000 -0.4374160825 0.4536966934
2336000000 -0.4347545969 0.458851197
2337000000 -0.4320566727 0.4639692407
2338000000 -0.429322856 0.4690505511
2339000000 -0.4265536946 0.4740948635
2340000000 -0.4237497381 0.4791019219
2341000000 -0.4209115376 0.4840714789
2342000000 -0.4180396454 0.4890032957
2343000000 -0.4151346153 0.4938971425
2344000000 -0.4121970019 0.4987527978
2345000000 -0.4092273609 0.503570049
2346000000 -0.4062262488 0.5083486919
2347000000 -0.4031942227 0.513088531
2348000000 -0.4001318401 0.5177893795
2349000000 -0.397039659 0.522451059
2350000000 -0.3939182377 0.5270733998
2351000000 -0.3907681345 0.5316562406
2352000000 -0.3875899076 0.5361994286
2353000000 -0.3843841152 0.5407028195
2354000000 -0.3811513148 0.5451662774
2355000000 -0.377892064 0.5495896749
2356000000 -0.3746069193 0.5539728927
2357000000 -0.3712964369 0.55831582
2358000000 -0.3679611718 0.5626183542
2359000000 -0.3646016783 0.566880401
2360000000 -0.3612185094 0.5711018741
2361000000 -0.357812217 0.5752826955
2362000000 -0.3543833515 0.5794227952
2363000000 -0.350932462 0.5835221112
2364000000 -0.3474600959 0.5875805894
2365000000 -0.3439667987 0.5915981839
2366000000 -0.3404531144 0.5955748562
2367000000 -0.3369195847 0.599510576
2368000000 -0.3333667493 0.6034053205
2369000000 -0.3297951459 0.6072590746
2370000000 -0.3262053096 0.6110718307
2371000000 -0.3225977732 0.614843589
2372000000 -0.3189730669 0.6185743569
2373000000 -0.3153317184 0.6222641492
2374000000 -0.3116742524 0.6259129881
2375000000 -0.3080011909 0.6295209029
2376000000 -0.3043130528 0.6330879304
2377000000 -0.300610354 0.636614114
2378000000 -0.2968936073 0.6400995044
2379000000 -0.293163322 0.6435441591
2380000000 -0.2894200041 0.6469481425
2381000000 -0.2856641564 0.6503115257
2382000000 -0.2818962776 0.6536343865
2383000000 -0.2781168632 0.6569168092
2384000000 -0.2743264048 0.6601588847
2385000000 -0.27052539 0.6633607102
2386000000 -0.2667143028 0.6665223892
2387000000 -0.2628936227 0.6696440315
2388000000 -0.2590638257 0.6727257529
2389000000 -0.2552253831 0.6757676754
2390000000 -0.2513787622 0.6787699268
2391000000 -0.2475244259 0.6817326407
2392000000 -0.2436628328 0.6846559564
2393000000 -0.2397944369 0.6875400191
2394000000 -0.2359196875 0.6903849792
2395000000 -0.2320390297 0.6931909928
2396000000 -0.2281529035 0.6959582212
2397000000 -0.2242617443 0.698686831
2398000000 -0.2203659828 0.7013769937
2399000000 -0.2164660445 0.7040288862
2400000000 -0.2125623504 0.7066426901
2401000000 -0.2086553161 0.7092185918
2402000000 -0.2047453523 0.7117567825
2403000000 -0.2008328648 0.7142574579
2404000000 -0.1969182539 0.7167208183
2405000000 -0.193001915 0.7191470684
2406000000 -0.189084238 0.721536417
2407000000 -0.1851656078 0.7238890774
2408000000 -0.1812464036 0.7262052666
2409000000 -0.1773269995 0.7284852059
2410000000 -0.1734077642 0.7307291201
2411000000 -0.1694890609 0.732937238
2412000000 -0.1655712471 0.7351097921
2413000000 -0.1616546752 0.7372470181
2414000000 -0.1577396918 0.7393491553
2415000000 -0.1538266379 0.7414164464
2416000000 -0.1499158491 0.7434491371
2417000000 -0.1460076552 0.7454474763
2418000000 -0.1421023805 0.7474117158
2419000000 -0.1382003436 0.7493421104
2420000000 -0.1343018573 0.7512389175
2421000000 -0.130407229 0.7531023973
2422000000 -0.1265167602 0.7549328123
2423000000 -0.1226307467 0.7567304277
2424000000 -0.1187494786 0.7584955109
2425000000 -0.1148732404 0.7602283314
2426000000 -0.1110023106 0.761929161
2427000000 -0.1071369622 0.7635982734
2428000000 -0.1032774624 0.7652359442
2429000000 -0.09942407269 0.7668424508
2430000000 -0.09557704877 0.7684180722
2431000000 -0.09173664067 0.7699630891
2432000000 -0.0879030927 0.7714777836
2433000000 -0.08407664343 0.7729624391
2434000000 -0.08025752578 0.7744173403
2435000000 -0.07644596695 0.7758427732
2436000000 -0.07264218847 0.7772390247
2437000000 -0.06884640625 0.7786063826
2438000000 -0.06505883053 0.7799451357
2439000000 -0.06127966594 0.7812555734
2440000000 -0.05750911154 0.782537986
2441000000 -0.05374736079 0.7837926641
2442000000 -0.04999460161 0.7850198988
2443000000 -0.04625101641 0.7862199816
2444000000 -0.0425167821 0.7873932044
2445000000 -0.03879207013 0.788539859
2446000000 -0.03507704651 0.7896602376
2447000000 -0.03137187187 0.7907546319
2448000000 -0.02767670146 0.7918233341
2449000000 -0.02399168522 0.7928666357
2450000000 -0.02031696778 0.7938848281
2451000000 -0.01665268853 0.7948782025
2452000000 -0.01299898166 0.7958470492
2453000000 -0.009355976162 0.7967916584
2454000000 -0.005723795932 0.7977123195
2455000000 -0.002102559771 0.798609321
2456000000 0.00150761855 0.7994829509
2457000000 0.005106630251 0.8003334961
2458000000 0.008694371486 0.8011612426
2459000000 0.0122707433 0.8019664754
2460000000 0.01583565159 0.8027494784
2461000000 0.01938900701 0.8035105342
2462000000 0.02293072497 0.8042499242
2463000000 0.02646072554 0.8049679285
2464000000 0.02997893345 0.8056648258
2465000000 0.03348527794 0.8063408931
2466000000 0.03697969281 0.8069964061
2467000000 0.04046211628 0.8076316389
2468000000 0.04393249096 0.8082468636
2469000000 0.04739076381 0.808842351
2470000000 0.05083688605 0.8094183696
2471000000 0.05427081308 0.8099751865
2472000000 0.05769250449 0.8105130665
2473000000 0.06110192391 0.8110322726
2474000000 0.06449903899 0.8115330657
2475000000 0.06788382136 0.8120157047
2476000000 0.07125624649 0.812480446
2477000000 0.07461629369 0.8129275442
2478000000 0.07796394601 0.8133572515
2479000000 0.08129919019 0.8137698177
2480000000 0.08462201656 0.8141654902
2481000000 0.08793241903 0.8145445143
2482000000 0.09123039493 0.8149071325
2483000000 0.09451594505 0.815253585
2484000000 0.09778907346 0.8155841094
2485000000 0.1010497875 0.8158989408
2486000000 0.1042980978 0.8161983116
2487000000 0.1075340179 0.8164824516
2488000000 0.1107575646 0.8167515879
2489000000 0.1139687575 0.8170059449
2490000000 0.1171676192 0.8172457442
2491000000 0.1203541752 0.8174712047
2492000000 0.1235284535 0.8176825424
2493000000 0.1266904851 0.8178799706
2494000000 0.1298403034 0.8180636997
2495000000 0.1329779443 0.818233937
2496000000 0.1361034463 0.8183908872
2497000000 0.1392168503 0.818534752
2498000000 0.1423181994 0.8186657299
2499000000 0.145407539 0.8187840168
2500000000 0.1484849166 0.8188898054
2501000000 0.151550382 0.8189832854
2502000000 0.1546039867 0.8190646436
2503000000 0.1576457844 0.8191340637
2504000000 0.1606758306 0.8191917265
2505000000 0.1636941826 0.8192378094
2506000000 0.1667008995 0.8192724873
2507000000 0.1696960419 0.8192959316
2508000000 0.1726796721 0.8193083108
2509000000 0.175651854 0.8193097904
2510000000 0.1786126527 0.8193005328
2511000000 0.1815621349 0.8192806972
2512000000 0.1845003685 0.81925044
2513000000 0.1874274227 0.8192099143
2514000000 0.1903433678 0.8191592703
2515000000 0.1932482752 0.8190986551
2516000000 0.1961422174 0.8190282128
2517000000 0.1990252678 0.8189480845
2518000000 0.2018975006 0.818858408
2519000000 0.2047589911 0.8187593185
2520000000 0.2076098151 0.818650948
2521000000 0.2104500492 0.8185334255
2522000000 0.2132797706 0.818406877
2523000000 0.2160990572 0.8182714256
2524000000 0.2189079872 0.8181271916
2525000000 0.2217066394 0.8179742921
2526000000 0.2244950929 0.8178128415
2527000000 0.2272734271 0.8176429514
2528000000 0.2300417218 0.8174647302
2529000000 0.2328000568 0.8172782838
2530000000 0.2355485122 0.8170837151
2531000000 0.2382871681 0.8168811244
2532000000 0.2410161047 0.816670609
2533000000 0.2437354021 0.8164522637
2534000000 0.2464451404 0.8162261805
2535000000 0.2491453995 0.8159924487
2536000000 0.251836259 0.8157511549
2537000000 0.2545177985 0.8155023832
2538000000 0.2571900972 0.8152462152
2539000000 0.2598532339 0.8149827297
2540000000 0.2625072871 0.8147120031
2541000000 0.2651523347 0.8144341095
2542000000 0.2677884544 0.8141491202
2543000000 0.2704157231 0.8138571044
2544000000 0.2730342171 0.8135581288
2545000000 0.2756440124 0.8132522577
2546000000 0.2782451841 0.8129395533
2547000000 0.2808378065 0.8126200752
2548000000 0.2834219533 0.8122938813
2549000000 0.2859976975 0.8119610267
2550000000 0.2885651111 0.8116215649
2551000000 0.2911242653 0.811275547
2552000000 0.2936752304 0.8109230222
2553000000 0.2962180757 0.8105640375
2554000000 0.2987528697 0.8101986381
2555000000 0.3012796799 0.8098268672
2556000000 0.3037985724 0.8094487661
2557000000 0.3063096127 0.8090643744
2558000000 0.308812865 0.8086737297
2559000000 0.3113083924 0.8082768679
2560000000 0.3137962568 0.8078738234
2561000000 0.316276519 0.8074646286
2562000000 0.3187492385 0.8070493146
2563000000 0.3212144738 0.8066279107
2564000000 0.3236722819 0.8062004448
2565000000 0.3261227187 0.8057669434
2566000000 0.3285658388 0.8053274313
2567000000 0.3310016954 0.8048819323
2568000000 0.3334303405 0.8044304684
2569000000 0.3358518247 0.8039730608
2570000000 0.3382661972 0.8035097291
2571000000 0.3406735059 0.8030404919
2572000000 0.3430737973 0.8025653665
2573000000 0.3454671165 0.8020843692
2574000000 0.3478535073 0.8015975153
2575000000 0.350233012 0.801104819
2576000000 0.3526056714 0.8006062935
2577000000 0.3549715249 0.8001019513
2578000000 0.3573306107 0.7995918037
2579000000 0.3596829652 0.7990758616
2580000000 0.3620286237 0.7985541347
2581000000 0.3643676197 0.7980266323
2582000000 0.3666999856 0.7974933628
2583000000 0.3690257522 0.7969543342
2584000000 0.3713449487 0.7964095536
2585000000 0.3736576032 0.7958590278
2586000000 0.375963742 0.7953027631
2587000000 0.3782633901 0.7947407653
2588000000 0.3805565712 0.7941730396
2589000000 0.3828433074 0.7935995911
2590000000 0.3851236194 0.7930204245
2591000000 0.3873975265 0.7924355442
2592000000 0.3896650467 0.7918449543
2593000000 0.3919261964 0.7912486588
2594000000 0.3941809907 0.7906466616
2595000000 0.3964294434 0.7900389662
2596000000 0.3986715668 0.7894255765
2597000000 0.4009073721 0.7888064959
2598000000 0.4031368687 0.788181728
2599000000 0.4053600652 0.7875512766
2600000000 0.4075769686 0.7869151454
2601000000 0.4097875845 0.7862733381
2602000000 0.4119919176 0.785625859
2603000000 0.4141899711 0.7849727121
2604000000 0.4163817468 0.7843139019
2605000000 0.4185672458 0.7836494332
2606000000 0.4207464674 0.782979311
2607000000 0.4229194101 0.7823035406
2608000000 0.4250860713 0.7816221278
2609000000 0.427246447 0.7809350787
2610000000 0.4294005322 0.7802423998
2611000000 0.4315483209 0.7795440983
2612000000 0.433689806 0.7788401815
2613000000 0.4358249792 0.7781306577
2614000000 0.4379538316 0.7774155353
2615000000 0.4400763529 0.7766948235
2616000000 0.442192532 0.7759685322
2617000000 0.4443023569 0.7752366717
2618000000 0.4464058148 0.7744992532
2619000000 0.4485028917 0.7737562884
2620000000 0.4505935732 0.7730077897
2621000000 0.4526778437 0.7722537704
2622000000 0.4547556871 0.7714942443
2623000000 0.4568270863 0.7707292264
2624000000 0.4588920237 0.7699587319
2625000000 0.460950481 0.7691827773
2626000000 0.4630024389 0.7684013798
2627000000 0.465047878 0.7676145572
2628000000 0.4670867779 0.7668223286
2629000000 0.4691191179 0.7660247136
2630000000 0.4711448765 0.7652217329
2631000000 0.4731640319 0.764413408
2632000000 0.4751765618 0.7635997614
2633000000 0.4771824434 0.7627808165
2634000000 0.4791816537 0.7619565977
2635000000 0.4811741691 0.7611271303
2636000000 0.4831599657 0.7602924406
2637000000 0.4851390194 0.7594525557
2638000000 0.4871113059 0.758607504
2639000000 0.4890768004 0.7577573147
2640000000 0.4910354783 0.7569020179
2641000000 0.4929873143 0.7560416449
2642000000 0.4949322835 0.7551762279
2643000000 0.4968703607 0.7543058001
2644000000 0.4988015205 0.7534303958
2645000000 0.5007257377 0.7525500501
2646000000 0.5026429869 0.7516647994
2647000000 0.504553243 0.7507746809
2648000000 0.5064564806 0.7498797329
2649000000 0.5083526748 0.7489799946
2650000000 0.5102418007 0.7480755063
2651000000 0.5121238333 0.7471663093
2652000000 0.5139987483 0.7462524459
2653000000 0.5158665212 0.7453339592
2654000000 0.517727128 0.7444108937
2655000000 0.519580545 0.7434832944
2656000000 0.5214267488 0.7425512075
2657000000 0.5232657162 0.7416146803
2658000000 0.5250974247 0.7406737607
2659000000 0.5269218519 0.7397284979
2660000000 0.5287389762 0.7387789417
2661000000 0.5305487762 0.737825143
2662000000 0.5323512312 0.7368671537
2663000000 0.5341463209 0.7359050263
2664000000 0.5359340257 0.7349388144
2665000000 0.5377143265 0.7339685724
2666000000 0.5394872049 0.7329943555
2667000000 0.5412526431 0.7320162197
2668000000 0.5430106241 0.7310342221
2669000000 0.5447611314 0.7300484201
2670000000 0.5465041494 0.7290588722
2671000000 0.5482396633 0.7280656377
2672000000 0.549967659 0.7270687765
2673000000 0.551688123 0.7260683492
2674000000 0.5534010431 0.725064417
2675000000 0.5551064076 0.7240570422
2676000000 0.5568042058 0.7230462872
2677000000 0.5584944278 0.7220322154
2678000000 0.5601770648 0.7210148906
2679000000 0.5618521089 0.7199943774
2680000000 0.5635195529 0.7189707407
2681000000 0.5651793909 0.7179440462
2682000000 0.5668316179 0.7169143598
2683000000 0.5684762298 0.7158817481
2684000000 0.5701132237 0.7148462782
2685000000 0.5717425977 0.7138080174
2686000000 0.5733643509 0.7127670336
2687000000 0.5749784836 0.7117233949
2688000000 0.576584997 0.71067717
2689000000 0.5781838935 0.7096284278
2690000000 0.5797751768 0.7085772373
2691000000 0.5813588514 0.707523668
2692000000 0.5829349232 0.7064677896
2693000000 0.5845033992 0.7054096719
2694000000 0.5860642875 0.704349385
2695000000 0.5876175974 0.703286999
2696000000 0.5891633394 0.7022225844
2697000000 0.5907015252 0.7011562114
2698000000 0.5922321676 0.7000879505
2699000000 0.5937552807 0.6990178722
2700000000 0.5952708797 0.697946047
