! PRELIMINARY bare PCB unless shell_eps > 0; see README.md
! L220 output ($1N324); all Gerber copper, components omitted (C216/L220/C217 not populated)
# Hz S RI R 50
2200000000 -0.1912817676 -0.4646921617
2201000000 -0.1967791059 -0.4609376896
2202000000 -0.2022465163 -0.4571269483
2203000000 -0.2076832819 -0.4532602408
2204000000 -0.2130886896 -0.4493378806
2205000000 -0.2184620305 -0.445360192
2206000000 -0.2238026003 -0.4413275098
2207000000 -0.2291096988 -0.4372401793
2208000000 -0.2343826307 -0.4330985564
2209000000 -0.2396207054 -0.4289030072
2210000000 -0.2448232376 -0.4246539081
2211000000 -0.249989547 -0.4203516458
2212000000 -0.2551189585 -0.4159966171
2213000000 -0.2602108028 -0.4115892286
2214000000 -0.2652644161 -0.4071298972
2215000000 -0.2702791407 -0.4026190494
2216000000 -0.2752543245 -0.3980571216
2217000000 -0.2801893218 -0.3934445596
2218000000 -0.2850834933 -0.388781819
2219000000 -0.2899362061 -0.3840693648
2220000000 -0.2947468338 -0.3793076712
2221000000 -0.299514757 -0.3744972217
2222000000 -0.3042393631 -0.369638509
2223000000 -0.3089200465 -0.3647320347
2224000000 -0.313556209 -0.3597783093
2225000000 -0.3181472597 -0.3547778519
2226000000 -0.3226926151 -0.3497311906
2227000000 -0.3271916995 -0.3446388616
2228000000 -0.3316439449 -0.3395014099
2229000000 -0.3360487913 -0.3343193883
2230000000 -0.3404056865 -0.329093358
2231000000 -0.3447140867 -0.3238238882
2232000000 -0.3489734564 -0.3185115559
2233000000 -0.3531832684 -0.3131569458
2234000000 -0.3573430042 -0.3077606501
2235000000 -0.3614521537 -0.3023232685
2236000000 -0.3655102159 -0.2968454081
2237000000 -0.3695166985 -0.2913276829
2238000000 -0.3734711182 -0.285770714
2239000000 -0.377373001 -0.2801751295
2240000000 -0.3812218818 -0.2745415639
2241000000 -0.3850173052 -0.2688706585
2242000000 -0.3887588249 -0.2631630608
2243000000 -0.3924460043 -0.2574194245
2244000000 -0.3960784164 -0.2516404096
2245000000 -0.3996556438 -0.2458266818
2246000000 -0.4031772791 -0.2399789126
2247000000 -0.4066429246 -0.2340977791
2248000000 -0.4100521926 -0.2281839638
2249000000 -0.4134047054 -0.2222381544
2250000000 -0.4167000957 -0.2162610437
2251000000 -0.4199380061 -0.2102533296
2252000000 -0.4231180895 -0.2042157145
2253000000 -0.4262400092 -0.1981489056
2254000000 -0.4293034391 -0.1920536142
2255000000 -0.4323080632 -0.1859305562
2256000000 -0.4352535762 -0.1797804514
2257000000 -0.4381396835 -0.1736040233
2258000000 -0.440966101 -0.1674019995
2259000000 -0.4437325552 -0.1611751108
2260000000 -0.4464387835 -0.1549240916
2261000000 -0.4490845341 -0.1486496794
2262000000 -0.4516695658 -0.1423526146
2263000000 -0.4541936485 -0.1360336407
2264000000 -0.4566565628 -0.1296935035
2265000000 -0.4590581004 -0.1233329516
2266000000 -0.4613980638 -0.1169527357
2267000000 -0.4636762665 -0.1105536087
2268000000 -0.465892533 -0.1041363255
2269000000 -0.468046699 -0.09770164263
2270000000 -0.4701386109 -0.09125031824
2271000000 -0.4721681265 -0.08478311192
2272000000 -0.4741351143 -0.07830078446
2273000000 -0.4760394541 -0.07180409769
2274000000 -0.4778810367 -0.0652938143
2275000000 -0.479659764 -0.05877069768
2276000000 -0.4813755489 -0.0522355117
2277000000 -0.4830283153 -0.04568902057
2278000000 -0.4846179984 -0.03913198865
2279000000 -0.4861445442 -0.03256518027
2280000000 -0.4876079098 -0.02598935953
2281000000 -0.4890080632 -0.01940529016
2282000000 -0.4903449836 -0.01281373534
2283000000 -0.4916186609 -0.006215457495
2284000000 -0.4928290962 0.0003887818635
2285000000 -0.4939763011 0.006998222305
2286000000 -0.4950602986 0.01361210466
2287000000 -0.4960811221 0.02022967121
2288000000 -0.497038816 0.02685016581
2289000000 -0.4979334353 0.03347283412
2290000000 -0.4987650458 0.04009692375
2291000000 -0.4995337241 0.0467216844
2292000000 -0.500239557 0.05334636808
2293000000 -0.5008826423 0.05997022925
2294000000 -0.5014630879 0.06659252497
2295000000 -0.5019810126 0.0732125151
2296000000 -0.502436545 0.07982946244
2297000000 -0.5028298246 0.08644263289
2298000000 -0.5031610006 0.09305129563
2299000000 -0.5034302327 0.09965472325
2300000000 -0.5036376907 0.1062521919
2301000000 -0.5037835543 0.1128429816
2302000000 -0.5038680132 0.1194263761
2303000000 -0.503891267 0.1260016633
2304000000 -0.5038535249 0.1325681352
2305000000 -0.5037550061 0.1391250883
2306000000 -0.5035959392 0.1456718234
2307000000 -0.5033765623 0.1522076462
2308000000 -0.5030971231 0.1587318669
2309000000 -0.5027578785 0.1652438009
2310000000 -0.5023590946 0.1717427685
2311000000 -0.5019010468 0.1782280951
2312000000 -0.5013840193 0.1846991118
2313000000 -0.5008083056 0.1911551549
2314000000 -0.5001742075 0.1975955663
2315000000 -0.4994820361 0.2040196938
2316000000 -0.4987321106 0.2104268911
2317000000 -0.497924759 0.2168165176
2318000000 -0.4970603176 0.2231879391
2319000000 -0.4961391309 0.2295405276
2320000000 -0.4951615516 0.2358736614
2321000000 -0.4941279405 0.2421867253
2322000000 -0.4930386662 0.2484791108
2323000000 -0.4918941052 0.2547502158
2324000000 -0.4906946413 0.2609994453
2325000000 -0.4894406664 0.2672262113
2326000000 -0.4881325793 0.2734299325
2327000000 -0.4867707864 0.279610035
2328000000 -0.4853557011 0.285765952
2329000000 -0.4838877438 0.2918971242
2330000000 -0.4823673417 0.2980029995
2331000000 -0.480794929 0.3040830335
2332000000 -0.4791709462 0.3101366894
2333000000 -0.4774958405 0.316163438
2334000000 -0.4757700653 0.3221627579
2335000000 -0.4739940801 0.3281341357
2336000000 -0.4721683506 0.3340770658
2337000000 -0.4702933484 0.3399910507
2338000000 -0.4683695507 0.345875601
2339000000 -0.4663974404 0.3517302354
2340000000 -0.4643775059 0.3575544811
2341000000 -0.4623102409 0.3633478732
2342000000 -0.4601961442 0.3691099556
2343000000 -0.4580357197 0.3748402802
2344000000 -0.4558294761 0.3805384078
2345000000 -0.4535779268 0.3862039076
2346000000 -0.4512815899 0.3918363573
2347000000 -0.4489409878 0.3974353433
2348000000 -0.4465566472 0.4030004608
2349000000 -0.444129099 0.4085313138
2350000000 -0.4416588779 0.4140275148
2351000000 -0.4391465225 0.4194886854
2352000000 -0.4365925751 0.424914456
2353000000 -0.4339975814 0.4303044658
2354000000 -0.4313620906 0.4356583631
2355000000 -0.4286866549 0.440975805
2356000000 -0.4259718296 0.4462564577
2357000000 -0.423218173 0.4514999964
2358000000 -0.4204262461 0.4567061052
2359000000 -0.4175966124 0.4618744775
2360000000 -0.4147298378 0.4670048155
2361000000 -0.4118264907 0.4720968305
2362000000 -0.4088871412 0.4771502432
2363000000 -0.4059123619 0.482164783
2364000000 -0.4029027267 0.4871401885
2365000000 -0.3998588116 0.4920762076
2366000000 -0.3967811937 0.4969725971
2367000000 -0.3936704517 0.5018291228
2368000000 -0.3905271655 0.5066455599
2369000000 -0.387351916 0.5114216924
2370000000 -0.384145285 0.5161573134
2371000000 -0.3809078551 0.5208522252
2372000000 -0.3776402093 0.5255062389
2373000000 -0.3743429314 0.5301191749
2374000000 -0.3710166051 0.5346908624
2375000000 -0.3676618147 0.5392211395
2376000000 -0.3642791441 0.5437098534
2377000000 -0.3608691774 0.54815686
2378000000 -0.3574324982 0.5525620244
2379000000 -0.3539696898 0.5569252203
2380000000 -0.3504813349 0.5612463302
2381000000 -0.3469680154 0.5655252455
2382000000 -0.3434303126 0.5697618661
2383000000 -0.3398688065 0.5739561008
2384000000 -0.3362840762 0.5781078669
2385000000 -0.3326766995 0.5822170904
2386000000 -0.3290472529 0.5862837057
2387000000 -0.325396311 0.5903076557
2388000000 -0.3217244473 0.5942888919
2389000000 -0.3180322331 0.5982273738
2390000000 -0.3143202378 0.6021230696
2391000000 -0.310589029 0.6059759556
2392000000 -0.3068391719 0.609786016
2393000000 -0.3030712294 0.6135532435
2394000000 -0.2992857622 0.6172776388
2395000000 -0.2954833281 0.6209592103
2396000000 -0.2916644826 0.6245979746
2397000000 -0.2878297782 0.6281939558
2398000000 -0.2839797645 0.6317471862
2399000000 -0.280114988 0.6352577054
2400000000 -0.2762359924 0.6387255608
2401000000 -0.2723433178 0.6421508071
2402000000 -0.268437501 0.6455335067
2403000000 -0.2645190756 0.6488737291
2404000000 -0.2605885712 0.6521715512
2405000000 -0.2566465142 0.6554270571
2406000000 -0.2526934268 0.6586403379
2407000000 -0.2487298275 0.6618114917
2408000000 -0.2447562308 0.6649406235
2409000000 -0.2407731472 0.6680278451
2410000000 -0.236781083 0.6710732751
2411000000 -0.23278054 0.6740770386
2412000000 -0.228772016 0.6770392672
2413000000 -0.2247560042 0.6799600991
2414000000 -0.2207329931 0.6828396785
2415000000 -0.2167034668 0.6856781561
2416000000 -0.2126679047 0.6884756886
2417000000 -0.2086267813 0.6912324387
2418000000 -0.2045805663 0.693948575
2419000000 -0.2005297245 0.6966242719
2420000000 -0.1964747155 0.6992597094
2421000000 -0.1924159941 0.7018550733
2422000000 -0.1883540098 0.7044105546
2423000000 -0.1842892068 0.7069263499
2424000000 -0.1802220242 0.7094026608
2425000000 -0.1761528956 0.7118396943
2426000000 -0.1720822493 0.7142376623
2427000000 -0.1680105079 0.7165967815
2428000000 -0.1639380889 0.7189172735
2429000000 -0.1598654039 0.7211993647
2430000000 -0.1557928588 0.7234432858
2431000000 -0.1517208541 0.7256492722
2432000000 -0.1476497844 0.7278175635
2433000000 -0.1435800386 0.7299484036
2434000000 -0.1395119997 0.7320420403
2435000000 -0.1354460449 0.7340987258
2436000000 -0.1313825455 0.7361187157
2437000000 -0.1273218669 0.7381022696
2438000000 -0.1232643684 0.7400496508
2439000000 -0.1192104035 0.7419611259
2440000000 -0.1151603195 0.7438369651
2441000000 -0.1111144578 0.7456774416
2442000000 -0.1070731537 0.7474828322
2443000000 -0.1030367362 0.7492534164
2444000000 -0.09900552834 0.7509894766
2445000000 -0.09497984712 0.7526912982
2446000000 -0.09096000321 0.7543591693
2447000000 -0.0869463012 0.7559933803
2448000000 -0.08293903947 0.7575942244
2449000000 -0.07893851022 0.7591619968
2450000000 -0.07494499946 0.7606969953
2451000000 -0.07095878699 0.7621995194
2452000000 -0.06698014641 0.7636698708
2453000000 -0.06300934512 0.7651083532
2454000000 -0.05904664432 0.7665152717
2455000000 -0.05509229899 0.7678909333
2456000000 -0.05114655795 0.7692356466
2457000000 -0.04720966382 0.7705497213
2458000000 -0.04328185302 0.7718334686
2459000000 -0.03936335585 0.773087201
2460000000 -0.03545439643 0.7743112317
2461000000 -0.03155519276 0.7755058753
2462000000 -0.02766595672 0.776671447
2463000000 -0.02378689408 0.7778082627
2464000000 -0.01991820456 0.7789166392
2465000000 -0.01606008181 0.7799968934
2466000000 -0.01221271347 0.7810493431
2467000000 -0.008376281172 0.7820743061
2468000000 -0.004550960584 0.7830721005
2469000000 -0.0007369214346 0.7840430445
2470000000 0.00306567245 0.7849874562
2471000000 0.006856663115 0.7859056538
2472000000 0.01063589844 0.7867979552
2473000000 0.01440323209 0.7876646779
2474000000 0.01815852349 0.7885061392
2475000000 0.0219016378 0.7893226557
2476000000 0.02563244581 0.7901145436
2477000000 0.02935082396 0.7908821182
2478000000 0.03305665427 0.7916256941
2479000000 0.03674982429 0.7923455852
2480000000 0.04043022704 0.7930421041
2481000000 0.04409776099 0.7937155627
2482000000 0.04775232996 0.7943662714
2483000000 0.05139384313 0.7949945396
2484000000 0.05502221493 0.7956006754
2485000000 0.05863736499 0.7961849854
2486000000 0.06223921813 0.7967477747
2487000000 0.06582770422 0.7972893469
2488000000 0.06940275822 0.7978100038
2489000000 0.07296432001 0.7983100458
2490000000 0.07651233442 0.7987897712
2491000000 0.0800467511 0.7992494764
2492000000 0.0835675245 0.7996894562
2493000000 0.08707461378 0.8001100029
2494000000 0.09056798274 0.8005114071
2495000000 0.09404759977 0.8008939571
2496000000 0.09751343777 0.8012579389
2497000000 0.1009654741 0.8016036362
2498000000 0.1044036903 0.8019313306
2499000000 0.1078280726 0.8022413008
2500000000 0.1112386112 0.8025338235
2501000000 0.1146353003 0.8028091726
2502000000 0.1180181384 0.8030676194
2503000000 0.1213871281 0.8033094327
2504000000 0.1247422756 0.8035348784
2505000000 0.1280835911 0.8037442198
2506000000 0.1314110888 0.8039377173
2507000000 0.1347247861 0.8041156285
2508000000 0.1380247045 0.8042782079
2509000000 0.1413108688 0.8044257074
2510000000 0.1445833072 0.8045583756
2511000000 0.1478420514 0.8046764582
2512000000 0.1510871364 0.8047801977
2513000000 0.1543186002 0.8048698338
2514000000 0.1575364842 0.8049456026
2515000000 0.1607408328 0.8050077374
2516000000 0.1639316933 0.8050564681
2517000000 0.1671091158 0.8050920213
2518000000 0.1702731534 0.8051146205
2519000000 0.1734238618 0.8051244857
2520000000 0.1765612993 0.8051218338
2521000000 0.179685527 0.805106878
2522000000 0.1827966082 0.8050798286
2523000000 0.1858946088 0.805040892
2524000000 0.1889795967 0.8049902715
2525000000 0.1920516425 0.8049281669
2526000000 0.1951108185 0.8048547745
2527000000 0.1981571993 0.8047702872
2528000000 0.2011908615 0.8046748943
2529000000 0.2042118835 0.8045687819
2530000000 0.2072203455 0.8044521322
2531000000 0.2102163295 0.8043251243
2532000000 0.2131999193 0.8041879334
2533000000 0.2161711999 0.8040407316
2534000000 0.2191302581 0.8038836872
2535000000 0.2220771821 0.803716965
2536000000 0.2250120613 0.8035407265
2537000000 0.2279349864 0.8033551295
2538000000 0.2308460494 0.8031603284
2539000000 0.2337453431 0.8029564739
2540000000 0.2366329618 0.8027437136
2541000000 0.2395090002 0.8025221913
2542000000 0.2423735542 0.8022920473
2543000000 0.2452267205 0.8020534188
2544000000 0.2480685965 0.8018064391
2545000000 0.2508992799 0.8015512384
2546000000 0.2537188696 0.8012879434
2547000000 0.2565274643 0.8010166774
2548000000 0.2593251637 0.8007375603
2549000000 0.2621120676 0.8004507086
2550000000 0.264888276 0.8001562355
2551000000 0.2676538893 0.7998542512
2552000000 0.2704090078 0.799544862
2553000000 0.2731537322 0.7992281715
2554000000 0.275888163 0.7989042798
2555000000 0.2786124006 0.7985732839
2556000000 0.2813265453 0.7982352775
2557000000 0.2840306974 0.7978903513
2558000000 0.2867249567 0.7975385929
2559000000 0.2894094228 0.7971800867
2560000000 0.2920841949 0.7968149141
2561000000 0.2947493719 0.7964431536
2562000000 0.2974050519 0.7960648806
2563000000 0.3000513327 0.7956801677
2564000000 0.3026883114 0.7952890845
2565000000 0.3053160844 0.7948916978
2566000000 0.3079347476 0.7944880716
2567000000 0.3105443957 0.794078267
2568000000 0.313145123 0.7936623426
2569000000 0.3157370227 0.7932403542
2570000000 0.3183201871 0.7928123549
2571000000 0.3208947075 0.7923783953
2572000000 0.3234606743 0.7919385235
2573000000 0.3260181767 0.7914927849
2574000000 0.3285673028 0.7910412227
2575000000 0.3311081397 0.7905838775
2576000000 0.333640773 0.7901207876
2577000000 0.3361652873 0.789651989
2578000000 0.3386817659 0.7891775154
2579000000 0.3411902906 0.7886973986
2580000000 0.3436909421 0.7882116677
2581000000 0.3461837995 0.7877203501
2582000000 0.3486689405 0.787223471
2583000000 0.3511464415 0.7867210537
2584000000 0.3536163772 0.7862131194
2585000000 0.3560788209 0.7856996876
2586000000 0.3585338444 0.7851807758
2587000000 0.3609815177 0.7846563998
2588000000 0.3634219094 0.7841265737
2589000000 0.3658550864 0.7835913098
2590000000 0.3682811139 0.7830506189
2591000000 0.3707000554 0.7825045102
2592000000 0.373111973 0.7819529913
2593000000 0.3755169266 0.7813960686
2594000000 0.3779149748 0.7808337468
2595000000 0.3803061741 0.7802660295
2596000000 0.3826905795 0.7796929189
2597000000 0.385068244 0.7791144159
2598000000 0.387439219 0.7785305204
2599000000 0.389803554 0.777941231
2600000000 0.3921612966 0.7773465455
2601000000 0.3945124928 0.7767464605
2602000000 0.3968571864 0.7761409715
2603000000 0.3991954198 0.7755300735
2604000000 0.4015272332 0.7749137605
2605000000 0.4038526651 0.7742920255
2606000000 0.4061717522 0.773664861
2607000000 0.4084845293 0.7730322589
2608000000 0.4107910292 0.7723942102
2609000000 0.413091283 0.7717507056
2610000000 0.4153853201 0.7711017352
2611000000 0.4176731677 0.7704472886
2612000000 0.4199548514 0.7697873551
2613000000 0.4222303949 0.7691219235
2614000000 0.4244998202 0.7684509825
2615000000 0.4267631472 0.7677745203
2616000000 0.4290203943 0.7670925253
2617000000 0.4312715779 0.7664049853
2618000000 0.4335167128 0.7657118884
2619000000 0.4357558117 0.7650132224
2620000000 0.437988886 0.7643089752
2621000000 0.440215945 0.7635991348
2622000000 0.4424369964 0.7628836892
2623000000 0.4446520463 0.7621626267
2624000000 0.4468610989 0.7614359357
2625000000 0.4490641569 0.7607036048
2626000000 0.4512612213 0.7599656231
2627000000 0.4534522915 0.7592219798
2628000000 0.4556373652 0.7584726647
2629000000 0.4578164387 0.7577176677
2630000000 0.4599895066 0.7569569796
2631000000 0.462156562 0.7561905914
2632000000 0.4643175966 0.7554184947
2633000000 0.4664726005 0.7546406818
2634000000 0.4686215625 0.7538571455
2635000000 0.4707644698 0.7530678794
2636000000 0.4729013083 0.7522728776
2637000000 0.4750320626 0.7514721353
2638000000 0.4771567159 0.7506656481
2639000000 0.4792752502 0.7498534127
2640000000 0.4813876461 0.7490354264
2641000000 0.4834938831 0.7482116875
2642000000 0.4855939395 0.7473821953
2643000000 0.4876877924 0.7465469499
2644000000 0.4897754178 0.7457059524
2645000000 0.4918567906 0.7448592051
2646000000 0.4939318846 0.744006711
2647000000 0.4960006727 0.7431484744
2648000000 0.4980631269 0.7422845005
2649000000 0.5001192179 0.7414147959
2650000000 0.502168916 0.740539368
2651000000 0.5042121902 0.7396582255
2652000000 0.506249009 0.7387713784
2653000000 0.5082793399 0.7378788376
2654000000 0.5103031498 0.7369806156
2655000000 0.5123204049 0.7360767257
2656000000 0.5143310708 0.7351671829
2657000000 0.5163351122 0.7342520031
2658000000 0.5183324935 0.7333312036
2659000000 0.5203231785 0.7324048032
2660000000 0.5223071305 0.7314728217
2661000000 0.5242843123 0.7305352805
2662000000 0.5262546865 0.729592202
2663000000 0.528218215 0.7286436103
2664000000 0.5301748597 0.7276895307
2665000000 0.5321245821 0.7267299898
2666000000 0.5340673433 0.7257650156
2667000000 0.5360031045 0.7247946375
2668000000 0.5379318266 0.7238188863
2669000000 0.5398534703 0.7228377941
2670000000 0.5417679964 0.7218513945
2671000000 0.5436753657 0.7208597224
2672000000 0.5455755388 0.719862814
2673000000 0.5474684766 0.7188607071
2674000000 0.5493541399 0.7178534406
2675000000 0.5512324898 0.7168410551
2676000000 0.5531034876 0.7158235923
2677000000 0.5549670946 0.7148010953
2678000000 0.5568232727 0.7137736087
2679000000 0.5586719839 0.7127411784
2680000000 0.5605131905 0.7117038515
2681000000 0.5623468554 0.7106616766
2682000000 0.5641729418 0.7096147036
2683000000 0.5659914133 0.7085629836
2684000000 0.5678022343 0.7075065691
2685000000 0.5696053693 0.7064455139
2686000000 0.5714007839 0.705379873
2687000000 0.5731884439 0.7043097026
2688000000 0.574968316 0.7032350603
2689000000 0.5767403675 0.7021560049
2690000000 0.5785045664 0.7010725962
2691000000 0.5802608817 0.6999848953
2692000000 0.582009283 0.6988929646
2693000000 0.5837497407 0.6977968676
2694000000 0.5854822263 0.6966966686
2695000000 0.587206712 0.6955924334
2696000000 0.588923171 0.6944842287
2697000000 0.5906315776 0.6933721222
2698000000 0.5923319069 0.6922561827
2699000000 0.5940241353 0.6911364801
2700000000 0.5957082399 0.690013085
