! PRELIMINARY bare PCB unless shell_eps > 0; see README.md
! L220 output ($1N324); all Gerber copper, components omitted (C216/L220/C217 not populated)
# Hz S RI R 50
2200000000 -0.05716126245 0.7267324444
2201000000 -0.05225522832 0.7292083762
2202000000 -0.0473545889 0.7316261251
2203000000 -0.0424600933 0.733986242
2204000000 -0.03757247451 0.7362892868
2205000000 -0.0326924493 0.7385358286
2206000000 -0.02782071816 0.7407264445
2207000000 -0.02295796523 0.7428617202
2208000000 -0.01810485823 0.7449422486
2209000000 -0.01326204844 0.7469686303
2210000000 -0.008430170607 0.7489414722
2211000000 -0.00360984299 0.7508613882
2212000000 0.001198332714 0.7527289978
2213000000 0.005993771356 0.7545449264
2214000000 0.01077590434 0.7563098045
2215000000 0.01554417961 0.7580242675
2216000000 0.02029806163 0.7596889553
2217000000 0.02503703136 0.7613045118
2218000000 0.02976058623 0.7628715846
2219000000 0.03446824005 0.7643908245
2220000000 0.03915952301 0.7658628853
2221000000 0.0438339816 0.7672884233
2222000000 0.0484911785 0.768668097
2223000000 0.05313069256 0.7700025667
2224000000 0.05775211866 0.7712924941
2225000000 0.06235506766 0.7725385419
2226000000 0.06693916624 0.7737413736
2227000000 0.07150405684 0.7749016531
2228000000 0.07604939752 0.7760200442
2229000000 0.08057486183 0.7770972104
2230000000 0.08508013866 0.7781338145
2231000000 0.08956493214 0.7791305186
2232000000 0.09402896147 0.7800879832
2233000000 0.09847196074 0.7810068671
2234000000 0.1028936788 0.7818878275
2235000000 0.1072938791 0.782731519
2236000000 0.1116723395 0.7835385939
2237000000 0.1160288521 0.7843097014
2238000000 0.120363223 0.7850454879
2239000000 0.1246752722 0.7857465961
2240000000 0.1289648333 0.7864136652
2241000000 0.1332317534 0.7870473303
2242000000 0.1374758929 0.7876482223
2243000000 0.1416971251 0.7882169678
2244000000 0.1458953362 0.7887541884
2245000000 0.150070425 0.7892605009
2246000000 0.1542223028 0.789736517
2247000000 0.1583508927 0.7901828428
2248000000 0.1624561301 0.7906000788
2249000000 0.1665379618 0.7909888197
2250000000 0.1705963461 0.7913496541
2251000000 0.1746312527 0.7916831644
2252000000 0.178642662 0.7919899263
2253000000 0.1826305651 0.7922705093
2254000000 0.1865949637 0.7925254757
2255000000 0.1905358695 0.7927553811
2256000000 0.1944533045 0.7929607737
2257000000 0.1983472999 0.7931421947
2258000000 0.2022178966 0.7933001777
2259000000 0.2060651447 0.7934352487
2260000000 0.209889103 0.7935479261
2261000000 0.213689839 0.7936387203
2262000000 0.2174674288 0.793708134
2263000000 0.2212219561 0.7937566617
2264000000 0.224953513 0.7937847896
2265000000 0.2286621988 0.7937929961
2266000000 0.2323481202 0.7937817507
2267000000 0.2360113909 0.793751515
2268000000 0.2396521314 0.7937027417
2269000000 0.2432704687 0.7936358752
2270000000 0.2468665361 0.7935513512
2271000000 0.2504404728 0.7934495968
2272000000 0.2539924236 0.7933310303
2273000000 0.2575225389 0.7931960613
2274000000 0.2610309742 0.7930450907
2275000000 0.26451789 0.7928785106
2276000000 0.2679834514 0.7926967041
2277000000 0.2714278279 0.7925000457
2278000000 0.274851193 0.792288901
2279000000 0.2782537245 0.7920636267
2280000000 0.2816356033 0.7918245709
2281000000 0.2849970142 0.7915720727
2282000000 0.2883381447 0.7913064624
2283000000 0.2916591857 0.7910280619
2284000000 0.2949603302 0.7907371839
2285000000 0.298241774 0.7904341328
2286000000 0.3015037151 0.7901192042
2287000000 0.3047463532 0.7897926852
2288000000 0.3079698899 0.7894548543
2289000000 0.3111745282 0.7891059817
2290000000 0.3143604726 0.7887463291
2291000000 0.3175279284 0.7883761498
2292000000 0.3206771019 0.787995689
2293000000 0.3238082 0.7876051838
2294000000 0.3269214299 0.7872048631
2295000000 0.3300169993 0.7867949477
2296000000 0.3330951158 0.7863756508
2297000000 0.3361559866 0.7859471778
2298000000 0.3391998189 0.7855097261
2299000000 0.3422268193 0.7850634858
2300000000 0.3452371934 0.7846086395
2301000000 0.3482311462 0.7841453626
2302000000 0.3512088816 0.7836738229
2303000000 0.3541706021 0.7831941814
2304000000 0.3571165089 0.782706592
2305000000 0.3600468016 0.782211202
2306000000 0.3629616783 0.7817081516
2307000000 0.3658613349 0.7811975747
2308000000 0.3687459657 0.7806795986
2309000000 0.3716157624 0.7801543445
2310000000 0.3744709148 0.7796219273
2311000000 0.3773116102 0.779082456
2312000000 0.3801380334 0.7785360334
2313000000 0.3829503664 0.7779827571
2314000000 0.3857487887 0.7774227188
2315000000 0.3885334768 0.7768560048
2316000000 0.3913046042 0.7762826963
2317000000 0.3940623415 0.7757028692
2318000000 0.3968068561 0.7751165947
2319000000 0.3995383121 0.7745239391
2320000000 0.4022568703 0.7739249639
2321000000 0.4049626882 0.7733197263
2322000000 0.4076559198 0.7727082793
2323000000 0.4103367154 0.7720906715
2324000000 0.4130052219 0.7714669476
2325000000 0.4156615826 0.7708371486
2326000000 0.4183059371 0.7702013117
2327000000 0.4209384209 0.7695594705
2328000000 0.4235591662 0.7689116555
2329000000 0.4261683012 0.7682578938
2330000000 0.42876595 0.7675982096
2331000000 0.4313522333 0.7669326242
2332000000 0.4339272675 0.766261156
2333000000 0.4364911652 0.7655838211
2334000000 0.4390440352 0.7649006331
2335000000 0.4415859822 0.7642116034
2336000000 0.4441171069 0.7635167413
2337000000 0.4466375064 0.762816054
2338000000 0.4491472734 0.762109547
2339000000 0.4516464971 0.7613972244
2340000000 0.4541352625 0.7606790884
2341000000 0.4566136508 0.7599551401
2342000000 0.4590817393 0.7592253794
2343000000 0.4615396014 0.7584898051
2344000000 0.463987307 0.757748415
2345000000 0.4664249217 0.7570012062
2346000000 0.4688525078 0.7562481752
2347000000 0.4712701236 0.7554893177
2348000000 0.473677824 0.7547246294
2349000000 0.4760756599 0.7539541055
2350000000 0.4784636791 0.7531777411
2351000000 0.4808419255 0.7523955314
2352000000 0.4832104398 0.7516074714
2353000000 0.4855692592 0.7508135568
2354000000 0.4879184175 0.7500137832
2355000000 0.4902579454 0.7492081468
2356000000 0.4925878704 0.7483966445
2357000000 0.4949082166 0.7475792736
2358000000 0.4972190055 0.7467560323
2359000000 0.4995202552 0.7459269196
2360000000 0.5018119811 0.7450919356
2361000000 0.5040941959 0.7442510813
2362000000 0.5063669094 0.7434043588
2363000000 0.5086301288 0.7425517716
2364000000 0.5108838587 0.7416933242
2365000000 0.5131281014 0.7408290227
2366000000 0.5153628566 0.7399588747
2367000000 0.5175881218 0.7390828892
2368000000 0.5198038923 0.7382010766
2369000000 0.5220101614 0.7373134494
2370000000 0.5242069203 0.7364200215
2371000000 0.5263941583 0.7355208085
2372000000 0.5285718629 0.7346158281
2373000000 0.5307400197 0.7337050997
2374000000 0.5328986131 0.7327886445
2375000000 0.5350476256 0.731866486
2376000000 0.5371870386 0.7309386493
2377000000 0.5393168318 0.7300051618
2378000000 0.541436984 0.7290660529
2379000000 0.5435474728 0.7281213541
2380000000 0.5456482747 0.727171099
2381000000 0.5477393655 0.7262153232
2382000000 0.5498207199 0.7252540648
2383000000 0.5518923122 0.7242873637
2384000000 0.5539541158 0.7233152621
2385000000 0.5560061038 0.7223378046
2386000000 0.5580482488 0.7213550377
2387000000 0.560080523 0.7203670103
2388000000 0.5621028986 0.7193737733
2389000000 0.5641153476 0.71837538
2390000000 0.5661178417 0.7173718857
2391000000 0.5681103532 0.7163633479
2392000000 0.5700928541 0.7153498263
2393000000 0.5720653168 0.7143313828
2394000000 0.5740277142 0.7133080813
2395000000 0.5759800195 0.7122799878
2396000000 0.5779222064 0.7112471703
2397000000 0.5798542492 0.710209699
2398000000 0.5817761232 0.709167646
2399000000 0.583687804 0.7081210854
2400000000 0.5855892685 0.7070700931
2401000000 0.5874804942 0.706014747
2402000000 0.5893614599 0.7049551269
2403000000 0.5912321454 0.7038913143
2404000000 0.5930925316 0.7028233924
2405000000 0.5949426007 0.7017514464
2406000000 0.5967823363 0.7006755628
2407000000 0.5986117232 0.6995958298
2408000000 0.6004307479 0.6985123372
2409000000 0.6022393982 0.6974251763
2410000000 0.6040376636 0.6963344399
2411000000 0.6058255351 0.6952402219
2412000000 0.6076030056 0.6941426177
2413000000 0.6093700696 0.693041724
2414000000 0.6111267234 0.6919376384
2415000000 0.6128729652 0.69083046
2416000000 0.614608795 0.6897202886
2417000000 0.6163342149 0.688607225
2418000000 0.6180492288 0.6874913712
2419000000 0.6197538428 0.6863728297
2420000000 0.6214480649 0.6852517038
2421000000 0.6231319051 0.6841280976
2422000000 0.6248053759 0.6830021158
2423000000 0.6264684915 0.6818738635
2424000000 0.6281212686 0.6807434464
2425000000 0.6297637259 0.6796109704
2426000000 0.6313958843 0.6784765419
2427000000 0.6330177672 0.6773402673
2428000000 0.6346293999 0.6762022535
2429000000 0.6362308101 0.675062607
2430000000 0.6378220278 0.6739214346
2431000000 0.6394030853 0.672778843
2432000000 0.6409740171 0.6716349385
2433000000 0.64253486 0.6704898275
2434000000 0.644085653 0.6693436159
2435000000 0.6456264375 0.668196409
2436000000 0.6471572571 0.667048312
2437000000 0.6486781578 0.6658994294
2438000000 0.6501891874 0.6647498649
2439000000 0.6516903966 0.6635997217
2440000000 0.6531818377 0.6624491021
2441000000 0.6546635656 0.6612981077
2442000000 0.6561356371 0.6601468391
2443000000 0.6575981113 0.6589953957
2444000000 0.6590510495 0.6578438762
2445000000 0.6604945149 0.656692378
2446000000 0.6619285728 0.6555409971
2447000000 0.6633532907 0.6543898285
2448000000 0.6647687379 0.6532389658
2449000000 0.6661749858 0.6520885011
2450000000 0.6675721075 0.650938525
2451000000 0.6689601782 0.6497891268
2452000000 0.6703392749 0.6486403941
2453000000 0.6717094763 0.6474924126
2454000000 0.6730708629 0.6463452667
2455000000 0.6744235169 0.6451990387
2456000000 0.675767522 0.6440538094
2457000000 0.6771029638 0.6429096574
2458000000 0.678429929 0.6417666596
2459000000 0.6797485062 0.6406248908
2460000000 0.6810587851 0.639484424
2461000000 0.6823608571 0.6383453298
2462000000 0.6836548145 0.6372076771
2463000000 0.6849407511 0.6360715323
2464000000 0.6862187619 0.6349369598
2465000000 0.6874889428 0.6338040218
2466000000 0.6887513911 0.6326727782
2467000000 0.6900062047 0.6315432865
2468000000 0.6912534826 0.6304156021
2469000000 0.6924933248 0.629289778
2470000000 0.6937258319 0.6281658646
2471000000 0.6949511052 0.6270439103
2472000000 0.6961692467 0.6259239607
2473000000 0.6973803591 0.6248060593
2474000000 0.6985845453 0.6236902469
2475000000 0.699781909 0.622576562
2476000000 0.7009725539 0.6214650405
2477000000 0.7021565844 0.6203557159
2478000000 0.7033341048 0.6192486192
2479000000 0.7045052196 0.6181437788
2480000000 0.7056700335 0.6170412209
2481000000 0.7068286511 0.6159409687
2482000000 0.707981177 0.6148430433
2483000000 0.7091277156 0.6137474632
2484000000 0.7102683712 0.6126542444
2485000000 0.7114032477 0.6115634004
2486000000 0.7125324486 0.6104749422
2487000000 0.7136560771 0.6093888784
2488000000 0.714774236 0.6083052151
2489000000 0.7158870273 0.607223956
2490000000 0.7169945526 0.6061451024
2491000000 0.7180969125 0.6050686533
2492000000 0.7191942072 0.6039946051
2493000000 0.7202865358 0.6029229521
2494000000 0.7213739966 0.6018536862
2495000000 0.722456687 0.600786797
2496000000 0.7235347033 0.5997222718
2497000000 0.7246081407 0.5986600958
2498000000 0.7256770932 0.5976002519
2499000000 0.7267416538 0.5965427211
2500000000 0.727801914 0.5954874819
2501000000 0.7288579641 0.5944345112
2502000000 0.729909893 0.5933837834
2503000000 0.7309577882 0.5923352712
2504000000 0.7320017357 0.5912889455
2505000000 0.7330418198 0.5902447749
2506000000 0.7340781234 0.5892027266
2507000000 0.7351107277 0.5881627656
2508000000 0.7361397122 0.5871248557
2509000000 0.7371651547 0.5860889584
2510000000 0.7381871312 0.585055034
2511000000 0.7392057158 0.5840230412
2512000000 0.7402209809 0.5829929369
2513000000 0.7412329969 0.5819646769
2514000000 0.7422418323 0.5809382154
2515000000 0.7432475537 0.5799135053
2516000000 0.7442502255 0.5788904982
2517000000 0.7452499102 0.5778691445
2518000000 0.7462466682 0.5768493936
2519000000 0.747240558 0.5758311936
2520000000 0.7482316356 0.5748144916
2521000000 0.7492199553 0.5737992338
2522000000 0.7502055689 0.5727853657
2523000000 0.7511885262 0.5717728316
2524000000 0.7521688747 0.5707615752
2525000000 0.7531466599 0.5697515397
2526000000 0.7541219248 0.5687426674
2527000000 0.7550947104 0.5677349002
2528000000 0.7560650553 0.5667281795
2529000000 0.7570329959 0.5657224461
2530000000 0.7579985665 0.5647176407
2531000000 0.7589617988 0.5637137036
2532000000 0.7599227227 0.5627105749
2533000000 0.7608813655 0.5617081945
2534000000 0.7618377524 0.5607065022
2535000000 0.7627919062 0.559705438
2536000000 0.7637438478 0.5587049417
2537000000 0.7646935956 0.5577049532
2538000000 0.7656411658 0.5567054129
2539000000 0.7665865726 0.5557062612
2540000000 0.7675298277 0.5547074388
2541000000 0.768470941 0.5537088868
2542000000 0.76940992 0.552710547
2543000000 0.7703467702 0.5517123613
2544000000 0.771281495 0.5507142725
2545000000 0.7722140956 0.5497162238
2546000000 0.7731445713 0.5487181593
2547000000 0.7740729194 0.5477200237
2548000000 0.7749991352 0.5467217626
2549000000 0.7759232119 0.5457233224
2550000000 0.7768451409 0.5447246504
2551000000 0.7777649118 0.543725695
2552000000 0.7786825123 0.5427264056
2553000000 0.7795979282 0.5417267325
2554000000 0.7805111436 0.5407266276
2555000000 0.781422141 0.5397260434
2556000000 0.7823309011 0.538724934
2557000000 0.783237403 0.5377232548
2558000000 0.7841416241 0.5367209623
2559000000 0.7850435406 0.5357180147
2560000000 0.7859431268 0.5347143712
2561000000 0.7868403558 0.5337099929
2562000000 0.7877351994 0.5327048421
2563000000 0.7886276279 0.5316988827
2564000000 0.7895176103 0.5306920803
2565000000 0.7904051146 0.5296844019
2566000000 0.7912901073 0.5286758162
2567000000 0.7921725541 0.5276662938
2568000000 0.7930524195 0.5266558067
2569000000 0.793929667 0.5256443287
2570000000 0.7948042593 0.5246318355
2571000000 0.795676158 0.5236183043
2572000000 0.7965453242 0.5226037145
2573000000 0.7974117178 0.5215880469
2574000000 0.7982752984 0.5205712843
2575000000 0.7991360248 0.5195534115
2576000000 0.7999938553 0.518534415
2577000000 0.8008487477 0.5175142832
2578000000 0.8017006592 0.5164930063
2579000000 0.8025495467 0.5154705765
2580000000 0.803395367 0.514446988
2581000000 0.8042380762 0.5134222367
2582000000 0.8050776307 0.5123963205
2583000000 0.8059139864 0.5113692392
2584000000 0.8067470993 0.5103409946
2585000000 0.8075769254 0.5093115902
2586000000 0.8084034207 0.5082810316
2587000000 0.8092265412 0.5072493261
2588000000 0.8100462434 0.5062164831
2589000000 0.8108624838 0.5051825136
2590000000 0.8116752192 0.5041474306
2591000000 0.812484407 0.503111249
2592000000 0.8132900047 0.5020739855
2593000000 0.8140919704 0.5010356585
2594000000 0.814890263 0.4999962883
2595000000 0.8156848415 0.4989558967
2596000000 0.8164756661 0.4979145077
2597000000 0.8172626972 0.4968721466
2598000000 0.8180458964 0.4958288406
2599000000 0.8188252258 0.4947846185
2600000000 0.8196006486 0.4937395106
2601000000 0.8203721288 0.492693549
2602000000 0.8211396314 0.4916467672
2603000000 0.8219031224 0.4905992004
2604000000 0.8226625689 0.489550885
2605000000 0.8234179392 0.4885018591
2606000000 0.8241692027 0.487452162
2607000000 0.82491633 0.4864018347
2608000000 0.8256592929 0.4853509191
2609000000 0.8263980646 0.4842994586
2610000000 0.8271326197 0.4832474979
2611000000 0.827862934 0.4821950827
2612000000 0.8285889847 0.48114226
2613000000 0.8293107508 0.4800890778
2614000000 0.8300282123 0.4790355851
2615000000 0.8307413511 0.4779818321
2616000000 0.8314501504 0.4769278696
2617000000 0.8321545951 0.4758737496
2618000000 0.8328546718 0.4748195248
2619000000 0.8335503685 0.4737652487
2620000000 0.834241675 0.4727109754
2621000000 0.8349285828 0.4716567599
2622000000 0.835611085 0.4706026577
2623000000 0.8362891765 0.4695487247
2624000000 0.8369628539 0.4684950175
2625000000 0.8376321156 0.4674415932
2626000000 0.8382969616 0.466388509
2627000000 0.838957394 0.4653358227
2628000000 0.8396134164 0.4642835921
2629000000 0.8402650342 0.4632318755
2630000000 0.8409122548 0.4621807311
2631000000 0.8415550872 0.4611302174
2632000000 0.8421935423 0.4600803927
2633000000 0.8428276329 0.4590313154
2634000000 0.8434573734 0.4579830439
2635000000 0.8440827801 0.4569356362
2636000000 0.8447038711 0.4558891503
2637000000 0.8453206664 0.4548436438
2638000000 0.8459331875 0.4537991741
2639000000 0.846541458 0.4527557982
2640000000 0.847145503 0.4517135725
2641000000 0.8477453494 0.450672553
2642000000 0.848341026 0.4496327953
2643000000 0.848932563 0.4485943541
2644000000 0.8495199926 0.4475572836
2645000000 0.8501033485 0.4465216372
2646000000 0.8506826661 0.4454874677
2647000000 0.8512579823 0.4444548269
2648000000 0.8518293357 0.4434237657
2649000000 0.8523967665 0.4423943342
2650000000 0.8529603163 0.4413665813
2651000000 0.8535200284 0.4403405552
2652000000 0.8540759474 0.4393163026
2653000000 0.8546281194 0.4382938695
2654000000 0.8551765919 0.4372733004
2655000000 0.8557214137 0.4362546387
2656000000 0.856262635 0.4352379265
2657000000 0.8568003073 0.4342232046
2658000000 0.8573344833 0.4332105125
2659000000 0.8578652169 0.4321998883
2660000000 0.8583925631 0.4311913686
2661000000 0.8589165781 0.4301849885
2662000000 0.8594373192 0.4291807817
2663000000 0.8599548446 0.4281787804
2664000000 0.8604692136 0.4271790151
2665000000 0.8609804862 0.4261815148
2666000000 0.8614887236 0.4251863067
2667000000 0.8619939874 0.4241934165
2668000000 0.8624963404 0.4232028682
2669000000 0.8629958458 0.422214684
2670000000 0.8634925676 0.4212288845
2671000000 0.8639865704 0.4202454885
2672000000 0.8644779192 0.4192645128
2673000000 0.8649666798 0.4182859728
2674000000 0.8654529181 0.4173098817
2675000000 0.8659367006 0.4163362512
2676000000 0.8664180941 0.4153650909
2677000000 0.8668971655 0.4143964087
2678000000 0.8673739822 0.4134302106
2679000000 0.8678486114 0.4124665007
2680000000 0.8683211207 0.4115052814
2681000000 0.8687915776 0.4105465529
2682000000 0.8692600495 0.4095903138
2683000000 0.8697266038 0.4086365608
2684000000 0.8701913079 0.4076852885
2685000000 0.8706542288 0.4067364899
2686000000 0.8711154331 0.4057901561
2687000000 0.8715749876 0.404846276
2688000000 0.8720329582 0.4039048371
2689000000 0.8724894105 0.4029658248
2690000000 0.8729444099 0.4020292228
2691000000 0.8733980209 0.4010950129
2692000000 0.8738503076 0.4001631752
2693000000 0.8743013333 0.3992336878
2694000000 0.8747511607 0.3983065273
2695000000 0.8751998516 0.3973816685
2696000000 0.8756474672 0.3964590844
2697000000 0.8760940676 0.3955387464
2698000000 0.876539712 0.3946206242
2699000000 0.8769844589 0.3937046859
2700000000 0.8774283653 0.3927908979
