! PRELIMINARY bare PCB unless shell_eps > 0; see README.md
! L220 output ($1N324); all Gerber copper, components omitted (C216/L220/C217 not populated)
# Hz S RI R 50
2200000000 -0.3288002352 -0.3488326307
2201000000 -0.3333253299 -0.3437076914
2202000000 -0.3378030583 -0.3385369576
2203000000 -0.342232845 -0.333320992
2204000000 -0.3466141227 -0.3280603655
2205000000 -0.3509463327 -0.3227556578
2206000000 -0.3552289247 -0.3174074564
2207000000 -0.3594613573 -0.3120163571
2208000000 -0.3636430975 -0.3065829634
2209000000 -0.3677736216 -0.3011078868
2210000000 -0.3718524147 -0.2955917463
2211000000 -0.3758789712 -0.2900351683
2212000000 -0.3798527948 -0.2844387865
2213000000 -0.3837733985 -0.2788032419
2214000000 -0.3876403049 -0.2731291823
2215000000 -0.3914530462 -0.2674172624
2216000000 -0.3952111642 -0.2616681437
2217000000 -0.3989142108 -0.255882494
2218000000 -0.4025617476 -0.2500609874
2219000000 -0.4061533464 -0.2442043044
2220000000 -0.4096885891 -0.2383131314
2221000000 -0.4131670677 -0.2323881605
2222000000 -0.4165883847 -0.2264300895
2223000000 -0.4199521528 -0.2204396219
2224000000 -0.4232579953 -0.2144174661
2225000000 -0.4265055461 -0.2083643361
2226000000 -0.4296944496 -0.2022809505
2227000000 -0.432824361 -0.1961680328
2228000000 -0.4358949463 -0.190026311
2229000000 -0.4389058822 -0.1838565176
2230000000 -0.4418568566 -0.1776593895
2231000000 -0.444747568 -0.1714356672
2232000000 -0.4475777261 -0.1651860955
2233000000 -0.4503470519 -0.1589114227
2234000000 -0.4530552771 -0.1526124006
2235000000 -0.4557021448 -0.1462897842
2236000000 -0.4582874094 -0.1399443317
2237000000 -0.4608108365 -0.1335768045
2238000000 -0.4632722028 -0.1271879663
2239000000 -0.4656712965 -0.1207785836
2240000000 -0.4680079173 -0.1143494253
2241000000 -0.470281876 -0.1079012623
2242000000 -0.472492995 -0.1014348677
2243000000 -0.474641108 -0.09495101637
2244000000 -0.4767260603 -0.08845048461
2245000000 -0.4787477084 -0.0819340503
2246000000 -0.4807059207 -0.07540249255
2247000000 -0.4826005765 -0.06885659147
2248000000 -0.4844315672 -0.06229712804
2249000000 -0.4861987951 -0.05572488393
2250000000 -0.4879021743 -0.04914064126
2251000000 -0.4895416305 -0.04254518245
2252000000 -0.4911171004 -0.03593929003
2253000000 -0.4926285325 -0.02932374644
2254000000 -0.4940758866 -0.02269933383
2255000000 -0.495459134 -0.01606683392
2256000000 -0.4967782573 -0.009427027778
2257000000 -0.4980332505 -0.002780695622
2258000000 -0.4992241188 0.003871383325
2259000000 -0.5003508788 0.01052843104
2260000000 -0.5014135584 0.0171896709
2261000000 -0.5024121967 0.02385432782
2262000000 -0.5033468438 0.03052162847
2263000000 -0.5042175612 0.03719080146
2264000000 -0.5050244214 0.04386107747
2265000000 -0.5057675077 0.05053168949
2266000000 -0.5064469147 0.05720187295
2267000000 -0.5070627477 0.06387086594
2268000000 -0.5076151229 0.07053790932
2269000000 -0.5081041674 0.07720224696
2270000000 -0.5085300189 0.08386312586
2271000000 -0.5088928258 0.09051979636
2272000000 -0.509192747 0.09717151229
2273000000 -0.5094299521 0.1038175311
2274000000 -0.5096046209 0.1104571141
2275000000 -0.5097169438 0.1170895266
2276000000 -0.5097671212 0.123714038
2277000000 -0.5097553639 0.1303299221
2278000000 -0.5096818925 0.136936457
2279000000 -0.509546938 0.1435329257
2280000000 -0.509350741 0.1501186156
2281000000 -0.5090935519 0.1566928193
2282000000 -0.508775631 0.1632548345
2283000000 -0.5083972481 0.1698039639
2284000000 -0.5079586824 0.1763395159
2285000000 -0.5074602227 0.1828608041
2286000000 -0.5069021668 0.1893671479
2287000000 -0.506284822 0.1958578725
2288000000 -0.5056085045 0.2023323091
2289000000 -0.5048735393 0.2087897949
2290000000 -0.5040802604 0.2152296733
2291000000 -0.5032290105 0.2216512941
2292000000 -0.5023201408 0.2280540134
2293000000 -0.5013540111 0.2344371942
2294000000 -0.5003309893 0.240800206
2295000000 -0.4992514516 0.2471424251
2296000000 -0.4981157825 0.2534632349
2297000000 -0.496924374 0.2597620258
2298000000 -0.4956776263 0.2660381955
2299000000 -0.4943759471 0.2722911487
2300000000 -0.4930197515 0.2785202978
2301000000 -0.4916094623 0.2847250627
2302000000 -0.4901455093 0.2909048708
2303000000 -0.4886283296 0.2970591572
2304000000 -0.487058367 0.3031873649
2305000000 -0.4854360725 0.3092889447
2306000000 -0.4837619034 0.3153633557
2307000000 -0.4820363238 0.3214100646
2308000000 -0.480259804 0.3274285467
2309000000 -0.4784328206 0.3334182854
2310000000 -0.4765558564 0.3393787724
2311000000 -0.4746294 0.3453095079
2312000000 -0.4726539457 0.3512100005
2313000000 -0.4706299935 0.3570797676
2314000000 -0.4685580489 0.3629183348
2315000000 -0.4664386228 0.3687252369
2316000000 -0.4642722309 0.3745000171
2317000000 -0.4620593944 0.3802422277
2318000000 -0.4598006388 0.3859514296
2319000000 -0.4574964947 0.3916271929
2320000000 -0.4551474971 0.3972690964
2321000000 -0.4527541851 0.4028767283
2322000000 -0.4503171024 0.4084496857
2323000000 -0.4478367965 0.4139875748
2324000000 -0.4453138187 0.4194900109
2325000000 -0.4427487243 0.4249566187
2326000000 -0.4401420719 0.4303870321
2327000000 -0.4374944236 0.4357808941
2328000000 -0.4348063446 0.4411378572
2329000000 -0.4320784034 0.4464575831
2330000000 -0.4293111711 0.4517397429
2331000000 -0.4265052218 0.456984017
2332000000 -0.4236611321 0.4621900954
2333000000 -0.420779481 0.4673576771
2334000000 -0.4178608496 0.472486471
2335000000 -0.4149058213 0.4775761949
2336000000 -0.4119149814 0.4826265764
2337000000 -0.4088889169 0.4876373524
2338000000 -0.4058282165 0.4926082692
2339000000 -0.4027334702 0.4975390824
2340000000 -0.3996052694 0.5024295573
2341000000 -0.3964442066 0.5072794683
2342000000 -0.3932508753 0.5120885994
2343000000 -0.3900258697 0.5168567438
2344000000 -0.3867697848 0.5215837042
2345000000 -0.3834832161 0.5262692925
2346000000 -0.3801667592 0.5309133301
2347000000 -0.3768210102 0.5355156474
2348000000 -0.3734465651 0.5400760843
2349000000 -0.3700440197 0.5445944898
2350000000 -0.3666139697 0.5490707222
2351000000 -0.3631570102 0.5535046487
2352000000 -0.3596737359 0.5578961459
2353000000 -0.3561647407 0.5622450993
2354000000 -0.3526306175 0.5665514035
2355000000 -0.3490719585 0.5708149621
2356000000 -0.3454893544 0.5750356875
2357000000 -0.3418833948 0.579213501
2358000000 -0.3382546679 0.5833483328
2359000000 -0.3346037602 0.5874401219
2360000000 -0.3309312565 0.5914888159
2361000000 -0.3272377397 0.5954943712
2362000000 -0.3235237908 0.5994567524
2363000000 -0.3197899886 0.6033759331
2364000000 -0.3160369096 0.607251895
2365000000 -0.312265128 0.6110846284
2366000000 -0.3084752155 0.6148741317
2367000000 -0.304667741 0.6186204117
2368000000 -0.3008432707 0.6223234833
2369000000 -0.2970023678 0.6259833693
2370000000 -0.2931455928 0.6296001008
2371000000 -0.2892735025 0.6331737166
2372000000 -0.285386651 0.6367042634
2373000000 -0.2814855886 0.6401917956
2374000000 -0.2775708624 0.6436363752
2375000000 -0.2736430156 0.6470380719
2376000000 -0.269702588 0.6503969627
2377000000 -0.2657501152 0.6537131322
2378000000 -0.2617861291 0.6569866721
2379000000 -0.2578111576 0.6602176812
2380000000 -0.2538257243 0.6634062657
2381000000 -0.2498303487 0.6665525385
2382000000 -0.2458255457 0.6696566194
2383000000 -0.241811826 0.6727186352
2384000000 -0.2377896957 0.6757387191
2385000000 -0.2337596563 0.6787170111
2386000000 -0.2297222045 0.6816536575
2387000000 -0.2256778322 0.6845488111
2388000000 -0.2216270265 0.6874026308
2389000000 -0.2175702695 0.6902152817
2390000000 -0.2135080382 0.6929869349
2391000000 -0.2094408044 0.6957177675
2392000000 -0.2053690349 0.6984079623
2393000000 -0.2012931911 0.7010577077
2394000000 -0.1972137289 0.703667198
2395000000 -0.1931310991 0.7062366326
2396000000 -0.1890457468 0.7087662164
2397000000 -0.1849581116 0.7112561595
2398000000 -0.1808686274 0.7137066771
2399000000 -0.1767777226 0.7161179892
2400000000 -0.1726858198 0.718490321
2401000000 -0.1685933357 0.7208239021
2402000000 -0.1645006814 0.723118967
2403000000 -0.1604082619 0.7253757544
2404000000 -0.1563164763 0.7275945078
2405000000 -0.1522257179 0.7297754744
2406000000 -0.1481363739 0.7319189059
2407000000 -0.1440488252 0.734025058
2408000000 -0.139963447 0.7360941901
2409000000 -0.1358806081 0.7381265655
2410000000 -0.1318006713 0.7401224511
2411000000 -0.1277239931 0.7420821172
2412000000 -0.1236509237 0.7440058376
2413000000 -0.1195818074 0.7458938895
2414000000 -0.1155169818 0.7477465528
2415000000 -0.1114567785 0.7495641109
2416000000 -0.1074015228 0.7513468498
2417000000 -0.1033515335 0.7530950584
2418000000 -0.0993071231 0.7548090281
2419000000 -0.09526859793 0.756489053
2420000000 -0.09123625781 0.7581354295
2421000000 -0.08721039625 0.7597484562
2422000000 -0.08319130039 0.7613284341
2423000000 -0.07917925099 0.7628756659
2424000000 -0.07517452248 0.7643904564
2425000000 -0.07117738289 0.7658731123
2426000000 -0.06718809392 0.7673239418
2427000000 -0.0632069109 0.7687432546
2428000000 -0.05923408285 0.770131362
2429000000 -0.05526985242 0.7714885765
2430000000 -0.05131445599 0.7728152119
2431000000 -0.0473681236 0.774111583
2432000000 -0.04343107904 0.7753780055
2433000000 -0.03950353983 0.7766147962
2434000000 -0.03558571724 0.7778222724
2435000000 -0.03167781635 0.779000752
2436000000 -0.02778003603 0.7801505537
2437000000 -0.023892569 0.7812719962
2438000000 -0.02001560186 0.7823653989
2439000000 -0.0161493151 0.783431081
2440000000 -0.01229388315 0.7844693621
2441000000 -0.008449474411 0.7854805616
2442000000 -0.004616251312 0.7864649987
2443000000 -0.0007943703175 0.7874229925
2444000000 0.003016018011 0.7883548617
2445000000 0.006814768976 0.7892609245
2446000000 0.0106017437 0.7901414987
2447000000 0.01437680907 0.7909969013
2448000000 0.01813983771 0.7918274486
2449000000 0.02189070791 0.7926334561
2450000000 0.02562930358 0.7934152383
2451000000 0.0293555142 0.7941731086
2452000000 0.03306923477 0.7949073796
2453000000 0.03677036573 0.7956183624
2454000000 0.04045881295 0.7963063667
2455000000 0.04413448762 0.7969717012
2456000000 0.04779730621 0.7976146727
2457000000 0.05144719041 0.7982355868
2458000000 0.05508406708 0.7988347472
2459000000 0.05870786814 0.799412456
2460000000 0.06231853056 0.7999690135
2461000000 0.06591599626 0.8005047181
2462000000 0.06950021205 0.8010198661
2463000000 0.07307112956 0.801514752
2464000000 0.07662870516 0.8019896681
2465000000 0.08017289992 0.8024449044
2466000000 0.08370367949 0.8028807489
2467000000 0.08722101406 0.8032974871
2468000000 0.0907248783 0.8036954022
2469000000 0.09421525123 0.8040747749
2470000000 0.09769211619 0.8044358835
2471000000 0.1011554607 0.8047790036
2472000000 0.1046052766 0.8051044082
2473000000 0.1080415596 0.8054123677
2474000000 0.1114643095 0.8057031497
2475000000 0.1148735299 0.8059770191
2476000000 0.1182692285 0.8062342378
2477000000 0.1216514165 0.806475065
2478000000 0.1250201088 0.8066997568
2479000000 0.128375324 0.8069085664
2480000000 0.1317170841 0.8071017439
2481000000 0.1350454145 0.8072795364
2482000000 0.1383603442 0.807442188
2483000000 0.141661905 0.8075899394
2484000000 0.1449501324 0.8077230282
2485000000 0.1482250644 0.807841689
2486000000 0.1514867425 0.8079461529
2487000000 0.1547352108 0.8080366478
2488000000 0.1579705165 0.8081133983
2489000000 0.1611927093 0.8081766256
2490000000 0.1644018416 0.8082265477
2491000000 0.1675979685 0.808263379
2492000000 0.1707811475 0.8082873306
2493000000 0.1739514385 0.8082986103
2494000000 0.1771089037 0.8082974222
2495000000 0.1802536076 0.8082839672
2496000000 0.1833856168 0.8082584424
2497000000 0.186505 0.8082210419
2498000000 0.1896118278 0.8081719558
2499000000 0.1927061729 0.8081113709
2500000000 0.1957881094 0.8080394707
2501000000 0.1988577136 0.8079564348
2502000000 0.2019150631 0.8078624396
2503000000 0.2049602372 0.8077576578
2504000000 0.2079933167 0.8076422585
2505000000 0.2110143837 0.8075164076
2506000000 0.2140235218 0.8073802672
2507000000 0.2170208155 0.8072339959
2508000000 0.2200063507 0.807077749
2509000000 0.2229802145 0.8069116781
2510000000 0.2259424945 0.8067359313
2511000000 0.2288932798 0.8065506536
2512000000 0.23183266 0.8063559859
2513000000 0.2347607255 0.8061520663
2514000000 0.2376775673 0.8059390289
2515000000 0.2405832772 0.8057170049
2516000000 0.2434779475 0.8054861217
2517000000 0.2463616708 0.8052465036
2518000000 0.2492345402 0.8049982713
2519000000 0.2520966491 0.8047415425
2520000000 0.2549480912 0.8044764313
2521000000 0.2577889602 0.8042030486
2522000000 0.2606193501 0.8039215021
2523000000 0.2634393548 0.8036318963
2524000000 0.2662490681 0.8033343324
2525000000 0.2690485839 0.8030289086
2526000000 0.2718379959 0.8027157199
2527000000 0.2746173974 0.8023948581
2528000000 0.2773868815 0.802066412
2529000000 0.280146541 0.8017304676
2530000000 0.2828964682 0.8013871076
2531000000 0.285636755 0.8010364119
2532000000 0.2883674926 0.8006784575
2533000000 0.2910887719 0.8003133185
2534000000 0.2938006829 0.7999410663
2535000000 0.2965033149 0.7995617692
2536000000 0.2991967566 0.7991754931
2537000000 0.3018810957 0.7987823011
2538000000 0.3045564193 0.7983822537
2539000000 0.3072228133 0.7979754085
2540000000 0.3098803629 0.797561821
2541000000 0.312529152 0.7971415438
2542000000 0.3151692637 0.7967146274
2543000000 0.31780078 0.7962811195
2544000000 0.3204237815 0.7958410658
2545000000 0.3230383478 0.7953945095
2546000000 0.3256445574 0.7949414915
2547000000 0.3282424874 0.7944820507
2548000000 0.3308322135 0.7940162235
2549000000 0.3334138102 0.7935440446
2550000000 0.3359873506 0.7930655465
2551000000 0.3385529064 0.7925807595
2552000000 0.341110548 0.7920897122
2553000000 0.3436603439 0.7915924313
2554000000 0.3462023616 0.7910889416
2555000000 0.3487366669 0.7905792661
2556000000 0.3512633239 0.7900634262
2557000000 0.3537823953 0.7895414414
2558000000 0.3562939422 0.78901333
2559000000 0.3587980239 0.7884791084
2560000000 0.3612946983 0.7879387915
2561000000 0.3637840215 0.787392393
2562000000 0.3662660479 0.7868399251
2563000000 0.3687408303 0.7862813986
2564000000 0.3712084197 0.7857168232
2565000000 0.3736688655 0.7851462072
2566000000 0.3761222153 0.7845695578
2567000000 0.3785685148 0.7839868814
2568000000 0.3810078081 0.7833981828
2569000000 0.3834401376 0.7828034663
2570000000 0.3858655438 0.7822027351
2571000000 0.3882840655 0.7815959915
2572000000 0.3906957397 0.780983237
2573000000 0.3931006016 0.7803644724
2574000000 0.3954986845 0.7797396978
2575000000 0.3978900202 0.7791089125
2576000000 0.4002746385 0.7784721154
2577000000 0.4026525675 0.7778293048
2578000000 0.4050238335 0.7771804784
2579000000 0.407388461 0.7765256338
2580000000 0.4097464727 0.7758647677
2581000000 0.4120978898 0.7751978771
2582000000 0.4144427314 0.7745249582
2583000000 0.4167810151 0.7738460072
2584000000 0.4191127568 0.7731610202
2585000000 0.4214379704 0.7724699932
2586000000 0.4237566683 0.7717729219
2587000000 0.4260688614 0.7710698022
2588000000 0.4283745586 0.77036063
2589000000 0.4306737673 0.7696454012
2590000000 0.4329664932 0.7689241119
2591000000 0.4352527406 0.7681967585
2592000000 0.4375325119 0.7674633373
2593000000 0.4398058082 0.7667238452
2594000000 0.4420726288 0.7659782792
2595000000 0.4443329717 0.7652266368
2596000000 0.4465868333 0.7644689158
2597000000 0.4488342085 0.7637051146
2598000000 0.4510750907 0.7629352318
2599000000 0.4533094721 0.7621592668
2600000000 0.4555373432 0.7613772194
2601000000 0.4577586935 0.7605890901
2602000000 0.4599735107 0.7597948801
2603000000 0.4621817817 0.7589945912
2604000000 0.4643834918 0.7581882258
2605000000 0.466578625 0.7573757872
2606000000 0.4687671644 0.7565572796
2607000000 0.4709490917 0.7557327077
2608000000 0.4731243874 0.7549020773
2609000000 0.4752930312 0.754065395
2610000000 0.4774550014 0.7532226683
2611000000 0.4796102755 0.7523739057
2612000000 0.4817588298 0.7515191167
2613000000 0.4839006398 0.7506583117
2614000000 0.48603568 0.7497915021
2615000000 0.488163924 0.7489187004
2616000000 0.4902853446 0.7480399203
2617000000 0.4923999138 0.7471551763
2618000000 0.4945076028 0.7462644844
2619000000 0.4966083821 0.7453678614
2620000000 0.4987022215 0.7444653253
2621000000 0.5007890901 0.7435568956
2622000000 0.5028689565 0.7426425925
2623000000 0.5049417887 0.7417224378
2624000000 0.507007554 0.7407964543
2625000000 0.5090662195 0.7398646661
2626000000 0.5111177518 0.7389270987
2627000000 0.5131621169 0.7379837785
2628000000 0.5151992807 0.7370347336
2629000000 0.5172292085 0.7360799931
2630000000 0.5192518657 0.7351195874
2631000000 0.5212672171 0.7341535482
2632000000 0.5232752277 0.7331819087
2633000000 0.5252758619 0.7322047031
2634000000 0.5272690844 0.7312219671
2635000000 0.5292548596 0.7302337377
2636000000 0.531233152 0.7292400532
2637000000 0.5332039262 0.7282409531
2638000000 0.5351671465 0.7272364784
2639000000 0.5371227779 0.7262266712
2640000000 0.539070785 0.725211575
2641000000 0.5410111328 0.7241912346
2642000000 0.5429437867 0.7231656962
2643000000 0.5448687122 0.7221350072
2644000000 0.5467858751 0.7210992161
2645000000 0.5486952416 0.7200583729
2646000000 0.5505967783 0.7190125289
2647000000 0.5524904522 0.7179617364
2648000000 0.554376231 0.7169060493
2649000000 0.5562540825 0.7158455222
2650000000 0.5581239754 0.7147802115
2651000000 0.5599858789 0.7137101745
2652000000 0.5618397627 0.7126354695
2653000000 0.5636855973 0.7115561564
2654000000 0.5655233539 0.7104722959
2655000000 0.5673530044 0.70938395
2656000000 0.5691745216 0.7082911818
2657000000 0.5709878788 0.7071940553
2658000000 0.5727930504 0.7060926358
2659000000 0.5745900116 0.7049869897
2660000000 0.5763787387 0.7038771841
2661000000 0.5781592085 0.7027632873
2662000000 0.5799313992 0.7016453686
2663000000 0.5816952898 0.7005234983
2664000000 0.5834508603 0.6993977475
2665000000 0.585198092 0.6982681881
2666000000 0.5869369671 0.6971348931
2667000000 0.5886674688 0.6959979362
2668000000 0.5903895817 0.6948573921
2669000000 0.5921032915 0.6937133359
2670000000 0.5938085851 0.6925658439
2671000000 0.5955054505 0.6914149927
2672000000 0.5971938771 0.69026086
2673000000 0.5988738555 0.6891035238
2674000000 0.6005453777 0.6879430629
2675000000 0.6022084367 0.6867795567
2676000000 0.6038630273 0.6856130851
2677000000 0.6055091452 0.6844437285
2678000000 0.6071467878 0.6832715679
2679000000 0.6087759537 0.6820966847
2680000000 0.610396643 0.6809191606
2681000000 0.6120088572 0.6797390779
2682000000 0.6136125993 0.678556519
2683000000 0.6152078735 0.6773715667
2684000000 0.6167946858 0.6761843043
2685000000 0.6183730434 0.6749948149
2686000000 0.6199429552 0.6738031822
2687000000 0.6215044314 0.6726094898
2688000000 0.6230574838 0.6714138214
2689000000 0.6246021258 0.6702162611
2690000000 0.6261383721 0.6690168926
2691000000 0.627666239 0.6678158
2692000000 0.6291857445 0.6666130671
2693000000 0.630696908 0.6654087777
2694000000 0.6321997503 0.6642030154
2695000000 0.6336942939 0.662995864
2696000000 0.6351805629 0.6617874066
2697000000 0.6366585827 0.6605777264
2698000000 0.6381283805 0.6593669062
2699000000 0.6395899848 0.6581550286
2700000000 0.6410434258 0.6569421758
