! PRELIMINARY bare PCB unless shell_eps > 0; see README.md
! L220 output ($1N324); all Gerber copper, components omitted (C216/L220/C217 not populated)
# Hz S RI R 50
2200000000 -0.4462979788 -0.192563496
2201000000 -0.449222826 -0.1865134998
2202000000 -0.4520907194 -0.1804379633
2203000000 -0.4549013954 -0.1743375649
2204000000 -0.4576545999 -0.168212986
2205000000 -0.4603500887 -0.1620649109
2206000000 -0.4629876272 -0.1558940267
2207000000 -0.4655669905 -0.149701023
2208000000 -0.4680879638 -0.143486592
2209000000 -0.4705503419 -0.1372514279
2210000000 -0.4729539295 -0.1309962274
2211000000 -0.4752985412 -0.1247216888
2212000000 -0.4775840015 -0.1184285124
2213000000 -0.4798101447 -0.1121174002
2214000000 -0.4819768152 -0.1057890557
2215000000 -0.4840838673 -0.09944418355
2216000000 -0.4861311651 -0.09308348983
2217000000 -0.4881185827 -0.08670768152
2218000000 -0.4900460042 -0.08031746654
2219000000 -0.4919133236 -0.07391355349
2220000000 -0.4937204448 -0.06749665156
2221000000 -0.4954672819 -0.06106747037
2222000000 -0.4971537585 -0.05462671976
2223000000 -0.4987798084 -0.04817510972
2224000000 -0.5003453752 -0.04171335015
2225000000 -0.5018504125 -0.03524215077
2226000000 -0.5032948837 -0.02876222094
2227000000 -0.5046787619 -0.02227426953
2228000000 -0.5060020303 -0.01577900472
2229000000 -0.5072646817 -0.009277133911
2230000000 -0.5084667187 -0.002769363522
2231000000 -0.5096081538 0.003743601126
2232000000 -0.5106890089 0.01026105597
2233000000 -0.5117093159 0.01678229836
2234000000 -0.512669116 0.02330662718
2235000000 -0.5135684604 0.02983334304
2236000000 -0.5144074094 0.03636174838
2237000000 -0.5151860332 0.04289114761
2238000000 -0.5159044112 0.04942084732
2239000000 -0.5165626322 0.05595015633
2240000000 -0.5171607946 0.06247838588
2241000000 -0.5176990059 0.0690048498
2242000000 -0.5181773828 0.07552886457
2243000000 -0.5185960514 0.08204974954
2244000000 -0.5189551468 0.08856682699
2245000000 -0.519254813 0.09507942234
2246000000 -0.5194952033 0.1015868642
2247000000 -0.5196764798 0.1080884847
2248000000 -0.5197988134 0.1145836192
2249000000 -0.5198623838 0.1210716069
2250000000 -0.5198673795 0.1275517908
2251000000 -0.5198139977 0.1340235175
2252000000 -0.5197024439 0.140486138
2253000000 -0.5195329323 0.1469390071
2254000000 -0.5193056855 0.1533814841
2255000000 -0.5190209343 0.1598129325
2256000000 -0.5186789179 0.1662327204
2257000000 -0.5182798835 0.1726402205
2258000000 -0.5178240864 0.1790348102
2259000000 -0.51731179 0.1854158719
2260000000 -0.5167432653 0.1917827926
2261000000 -0.5161187914 0.1981349648
2262000000 -0.5154386549 0.2044717859
2263000000 -0.51470315 0.2107926586
2264000000 -0.5139125785 0.2170969911
2265000000 -0.5130672495 0.2233841971
2266000000 -0.5121674795 0.2296536957
2267000000 -0.5112135921 0.235904912
2268000000 -0.5102059179 0.2421372767
2269000000 -0.5091447948 0.2483502263
2270000000 -0.5080305672 0.2545432034
2271000000 -0.5068635865 0.2607156568
2272000000 -0.5056442107 0.2668670412
2273000000 -0.5043728044 0.2729968178
2274000000 -0.5030497384 0.2791044539
2275000000 -0.5016753902 0.2851894235
2276000000 -0.5002501433 0.2912512068
2277000000 -0.4987743872 0.2972892908
2278000000 -0.4972485176 0.3033031691
2279000000 -0.4956729358 0.309292342
2280000000 -0.4940480491 0.3152563167
2281000000 -0.4923742703 0.321194607
2282000000 -0.4906520176 0.3271067341
2283000000 -0.4888817148 0.3329922259
2284000000 -0.4870637908 0.3388506175
2285000000 -0.4851986797 0.344681451
2286000000 -0.4832868206 0.3504842759
2287000000 -0.4813286574 0.3562586488
2288000000 -0.4793246389 0.3620041337
2289000000 -0.4772752186 0.3677203019
2290000000 -0.4751808541 0.3734067323
2291000000 -0.473042008 0.3790630111
2292000000 -0.4708591466 0.3846887321
2293000000 -0.4686327407 0.3902834966
2294000000 -0.4663632649 0.3958469135
2295000000 -0.4640511978 0.4013785994
2296000000 -0.4616970217 0.4068781786
2297000000 -0.4593012224 0.4123452831
2298000000 -0.4568642894 0.4177795527
2299000000 -0.4543867154 0.4231806348
2300000000 -0.4518689964 0.4285481848
2301000000 -0.4493116315 0.433881866
2302000000 -0.4467151227 0.4391813493
2303000000 -0.4440799749 0.4444463138
2304000000 -0.4414066958 0.4496764462
2305000000 -0.4386957954 0.4548714414
2306000000 -0.4359477864 0.4600310021
2307000000 -0.4331631837 0.4651548389
2308000000 -0.4303425045 0.4702426707
2309000000 -0.427486268 0.4752942239
2310000000 -0.4245949952 0.4803092332
2311000000 -0.4216692091 0.4852874413
2312000000 -0.4187094343 0.4902285986
2313000000 -0.4157161969 0.495132464
2314000000 -0.4126900245 0.4999988038
2315000000 -0.4096314459 0.5048273928
2316000000 -0.406540991 0.5096180134
2317000000 -0.403419191 0.5143704563
2318000000 -0.4002665778 0.5190845199
2319000000 -0.397083684 0.5237600107
2320000000 -0.393871043 0.5283967431
2321000000 -0.3906291888 0.5329945394
2322000000 -0.3873586556 0.5375532299
2323000000 -0.384059978 0.5420726527
2324000000 -0.3807336908 0.5465526537
2325000000 -0.3773803287 0.5509930867
2326000000 -0.3740004265 0.5553938135
2327000000 -0.3705945186 0.5597547033
2328000000 -0.3671631392 0.5640756335
2329000000 -0.363706822 0.5683564887
2330000000 -0.3602261002 0.5725971618
2331000000 -0.3567215063 0.5767975528
2332000000 -0.353193572 0.5809575696
2333000000 -0.349642828 0.5850771276
2334000000 -0.3460698042 0.5891561498
2335000000 -0.342475029 0.5931945667
2336000000 -0.33885903 0.5971923161
2337000000 -0.335222333 0.6011493433
2338000000 -0.3315654628 0.605065601
2339000000 -0.3278889421 0.6089410491
2340000000 -0.3241932924 0.6127756548
2341000000 -0.320479033 0.6165693925
2342000000 -0.3167466817 0.6203222438
2343000000 -0.3129967539 0.6240341973
2344000000 -0.3092297631 0.6277052486
2345000000 -0.3054462208 0.6313354003
2346000000 -0.3016466357 0.6349246621
2347000000 -0.2978315146 0.6384730502
2348000000 -0.2940013614 0.6419805878
2349000000 -0.2901566778 0.6454473048
2350000000 -0.2862979624 0.6488732377
2351000000 -0.2824257113 0.6522584297
2352000000 -0.2785404176 0.6556029303
2353000000 -0.2746425715 0.6589067956
2354000000 -0.2707326601 0.6621700881
2355000000 -0.2668111675 0.6653928764
2356000000 -0.2628785743 0.6685752355
2357000000 -0.258935358 0.6717172464
2358000000 -0.2549819927 0.6748189965
2359000000 -0.251018949 0.6778805787
2360000000 -0.2470466938 0.6809020922
2361000000 -0.2430656907 0.6838836419
2362000000 -0.2390763993 0.6868253384
2363000000 -0.2350792756 0.689727298
2364000000 -0.2310747716 0.6925896426
2365000000 -0.2270633355 0.6954124996
2366000000 -0.2230454114 0.6981960019
2367000000 -0.2190214395 0.7009402875
2368000000 -0.2149918557 0.7036455
2369000000 -0.2109570918 0.7063117878
2370000000 -0.2069175755 0.7089393045
2371000000 -0.2028737298 0.7115282088
2372000000 -0.1988259737 0.7140786641
2373000000 -0.1947747215 0.7165908387
2374000000 -0.1907203834 0.7190649056
2375000000 -0.1866633645 0.7215010425
2376000000 -0.1826040658 0.7238994314
2377000000 -0.1785428835 0.7262602589
2378000000 -0.174480209 0.728583716
2379000000 -0.170416429 0.7308699977
2380000000 -0.1663519257 0.7331193034
2381000000 -0.162287076 0.7353318365
2382000000 -0.1582222524 0.7375078042
2383000000 -0.1541578221 0.7396474177
2384000000 -0.1500941477 0.7417508921
2385000000 -0.1460315865 0.7438184458
2386000000 -0.1419704911 0.7458503011
2387000000 -0.1379112088 0.7478466838
2388000000 -0.133854082 0.7498078228
2389000000 -0.1297994478 0.7517339506
2390000000 -0.1257476385 0.7536253026
2391000000 -0.1216989808 0.7554821176
2392000000 -0.1176537966 0.7573046371
2393000000 -0.1136124024 0.7590931057
2394000000 -0.1095751095 0.7608477708
2395000000 -0.1055422241 0.7625688825
2396000000 -0.1015140468 0.7642566933
2397000000 -0.09749087338 0.7659114584
2398000000 -0.09347299399 0.7675334355
2399000000 -0.0894606936 0.7691228844
2400000000 -0.08545425188 0.7706800674
2401000000 -0.08145394316 0.7722052486
2402000000 -0.07746003648 0.7736986943
2403000000 -0.0734727955 0.7751606728
2404000000 -0.0694924786 0.7765914541
2405000000 -0.06551933881 0.7779913102
2406000000 -0.06155362381 0.7793605143
2407000000 -0.05759557598 0.7806993416
2408000000 -0.05364543235 0.7820080686
2409000000 -0.04970342465 0.783286973
2410000000 -0.04576977927 0.7845363341
2411000000 -0.04184471732 0.7857564322
2412000000 -0.0379284546 0.7869475487
2413000000 -0.03402120162 0.7881099659
2414000000 -0.03012316363 0.7892439673
2415000000 -0.02623454063 0.790349837
2416000000 -0.02235552734 0.7914278598
2417000000 -0.0184863133 0.7924783213
2418000000 -0.01462708283 0.7935015077
2419000000 -0.01077801505 0.7944977053
2420000000 -0.006939283926 0.7954672012
2421000000 -0.0031110583 0.7964102826
2422000000 0.0007064981195 0.797327237
2423000000 0.004513226708 0.7982183519
2424000000 0.008308973901 0.7990839149
2425000000 0.01209359117 0.7999242137
2426000000 0.01586693499 0.8007395356
2427000000 0.0196288668 0.8015301679
2428000000 0.02337925298 0.8022963977
2429000000 0.02711796483 0.8030385114
2430000000 0.03084487851 0.8037567954
2431000000 0.034559875 0.8044515352
2432000000 0.03826284009 0.805123016
2433000000 0.04195366434 0.8057715221
2434000000 0.04563224301 0.8063973372
2435000000 0.04929847604 0.8070007442
2436000000 0.052952268 0.8075820251
2437000000 0.05659352806 0.8081414608
2438000000 0.06022216995 0.8086793314
2439000000 0.06383811186 0.8091959158
2440000000 0.06744127649 0.8096914917
2441000000 0.07103159092 0.8101663356
2442000000 0.07460898658 0.8106207228
2443000000 0.07817339923 0.8110549271
2444000000 0.08172476889 0.811469221
2445000000 0.08526303979 0.8118638754
2446000000 0.08878816031 0.8122391598
2447000000 0.09230008295 0.8125953421
2448000000 0.09579876425 0.8129326883
2449000000 0.09928416476 0.813251463
2450000000 0.102756249 0.8135519288
2451000000 0.1062149853 0.8138343467
2452000000 0.1096603458 0.8140989755
2453000000 0.1130923067 0.8143460724
2454000000 0.1165108475 0.8145758925
2455000000 0.1199159517 0.8147886888
2456000000 0.1233076062 0.8149847123
2457000000 0.1266858014 0.8151642118
2458000000 0.1300505315 0.8153274341
2459000000 0.1334017937 0.8154746236
2460000000 0.1367395889 0.8156060226
2461000000 0.1400639211 0.8157218709
2462000000 0.1433747977 0.8158224063
2463000000 0.146672229 0.8159078638
2464000000 0.1499562286 0.8159784764
2465000000 0.1532268133 0.8160344743
2466000000 0.1564840025 0.8160760856
2467000000 0.1597278189 0.8161035354
2468000000 0.1629582878 0.8161170468
2469000000 0.1661754375 0.8161168398
2470000000 0.1693792987 0.8161031322
2471000000 0.1725699051 0.816076139
2472000000 0.1757472929 0.8160360725
2473000000 0.1789115007 0.8159831423
2474000000 0.1820625697 0.8159175555
2475000000 0.1852005436 0.8158395161
2476000000 0.1883254681 0.8157492258
2477000000 0.1914373916 0.8156468832
2478000000 0.1945363643 0.8155326841
2479000000 0.1976224388 0.8154068217
2480000000 0.2006956697 0.8152694862
2481000000 0.2037561137 0.815120865
2482000000 0.2068038292 0.8149611428
2483000000 0.2098388767 0.8147905011
2484000000 0.2128613185 0.8146091189
2485000000 0.2158712185 0.814417172
2486000000 0.2188686425 0.8142148335
2487000000 0.2218536578 0.8140022736
2488000000 0.2248263331 0.8137796594
2489000000 0.2277867389 0.8135471553
2490000000 0.230734947 0.8133049226
2491000000 0.2336710305 0.8130531199
2492000000 0.2365950638 0.8127919028
2493000000 0.2395071226 0.8125214238
2494000000 0.2424072837 0.8122418327
2495000000 0.2452956252 0.8119532763
2496000000 0.2481722261 0.8116558985
2497000000 0.2510371664 0.8113498404
2498000000 0.253890527 0.8110352399
2499000000 0.2567323897 0.8107122323
2500000000 0.2595628371 0.81038095
2501000000 0.2623819527 0.8100415224
2502000000 0.2651898204 0.809694076
2503000000 0.267986525 0.8093387346
2504000000 0.2707721517 0.8089756191
2505000000 0.2735467862 0.8086048475
2506000000 0.2763105149 0.8082265352
2507000000 0.2790634243 0.8078407945
2508000000 0.2818056015 0.8074477351
2509000000 0.2845371336 0.807047464
2510000000 0.2872581083 0.8066400854
2511000000 0.2899686132 0.8062257007
2512000000 0.2926687361 0.8058044085
2513000000 0.295358565 0.8053763052
2514000000 0.2980381878 0.8049414839
2515000000 0.3007076923 0.8045000356
2516000000 0.3033671665 0.8040520484
2517000000 0.306016698 0.8035976079
2518000000 0.3086563744 0.803136797
2519000000 0.311286283 0.8026696964
2520000000 0.3139065109 0.8021963839
2521000000 0.3165171448 0.8017169352
2522000000 0.3191182711 0.8012314232
2523000000 0.3217099757 0.8007399186
2524000000 0.3242923443 0.8002424897
2525000000 0.3268654618 0.7997392024
2526000000 0.3294294128 0.7992301202
2527000000 0.3319842812 0.7987153044
2528000000 0.3345301505 0.7981948141
2529000000 0.3370671032 0.797668706
2530000000 0.3395952213 0.7971370348
2531000000 0.3421145862 0.7965998528
2532000000 0.3446252783 0.7960572105
2533000000 0.3471273774 0.7955091561
2534000000 0.3496209623 0.7949557357
2535000000 0.3521061111 0.7943969935
2536000000 0.3545829008 0.7938329718
2537000000 0.3570514076 0.7932637108
2538000000 0.3595117068 0.7926892489
2539000000 0.3619638726 0.7921096225
2540000000 0.3644079782 0.7915248664
2541000000 0.3668440956 0.7909350136
2542000000 0.3692722961 0.790340095
2543000000 0.3716926497 0.7897401403
2544000000 0.374105225 0.7891351771
2545000000 0.3765100899 0.7885252318
2546000000 0.3789073109 0.7879103288
2547000000 0.3812969532 0.7872904913
2548000000 0.3836790811 0.7866657408
2549000000 0.3860537574 0.7860360975
2550000000 0.3884210437 0.7854015799
2551000000 0.3907810003 0.7847622056
2552000000 0.3931336864 0.7841179903
2553000000 0.3954791596 0.7834689489
2554000000 0.3978174764 0.7828150948
2555000000 0.4001486918 0.7821564403
2556000000 0.4024728597 0.7814929965
2557000000 0.4047900323 0.7808247733
2558000000 0.4071002606 0.7801517796
2559000000 0.4094035944 0.7794740234
2560000000 0.4117000817 0.7787915115
2561000000 0.4139897695 0.7781042498
2562000000 0.4162727031 0.7774122433
2563000000 0.4185489265 0.7767154963
2564000000 0.4208184824 0.776014012
2565000000 0.4230814117 0.7753077931
2566000000 0.4253377544 0.7745968413
2567000000 0.4275875485 0.7738811577
2568000000 0.4298308311 0.7731607429
2569000000 0.4320676375 0.7724355966
2570000000 0.4342980016 0.7717057182
2571000000 0.4365219561 0.7709711065
2572000000 0.4387395321 0.7702317596
2573000000 0.4409507592 0.7694876754
2574000000 0.4431556657 0.7687388513
2575000000 0.4453542784 0.7679852844
2576000000 0.4475466228 0.7672269712
2577000000 0.4497327229 0.7664639082
2578000000 0.4519126012 0.7656960916
2579000000 0.454086279 0.7649235174
2580000000 0.4562537761 0.7641461811
2581000000 0.458415111 0.7633640786
2582000000 0.4605703007 0.7625772052
2583000000 0.462719361 0.7617855565
2584000000 0.4648623062 0.7609891278
2585000000 0.4669991494 0.7601879146
2586000000 0.4691299023 0.7593819123
2587000000 0.4712545754 0.7585711165
2588000000 0.4733731777 0.7577555229
2589000000 0.4754857171 0.7569351272
2590000000 0.4775922002 0.7561099254
2591000000 0.4796926323 0.7552799137
2592000000 0.4817870177 0.7544450885
2593000000 0.4838753591 0.7536054465
2594000000 0.4859576584 0.7527609847
2595000000 0.4880339161 0.7519117006
2596000000 0.4901041316 0.7510575916
2597000000 0.4921683031 0.7501986561
2598000000 0.4942264279 0.7493348925
2599000000 0.4962785021 0.7484662997
2600000000 0.4983245206 0.7475928773
2601000000 0.5003644774 0.7467146251
2602000000 0.5023983655 0.7458315438
2603000000 0.5044261769 0.7449436343
2604000000 0.5064479025 0.7440508982
2605000000 0.5084635323 0.7431533379
2606000000 0.5104730556 0.7422509561
2607000000 0.5124764605 0.7413437564
2608000000 0.5144737344 0.740431743
2609000000 0.5164648637 0.7395149208
2610000000 0.5184498342 0.7385932953
2611000000 0.5204286308 0.737666873
2612000000 0.5224012375 0.7367356608
2613000000 0.5243676379 0.7357996667
2614000000 0.5263278145 0.7348588993
2615000000 0.5282817494 0.7339133681
2616000000 0.5302294239 0.7329630833
2617000000 0.5321708188 0.7320080561
2618000000 0.5341059142 0.7310482984
2619000000 0.5360346896 0.7300838232
2620000000 0.5379571241 0.729114644
2621000000 0.5398731963 0.7281407756
2622000000 0.5417828841 0.7271622334
2623000000 0.5436861652 0.7261790339
2624000000 0.5455830168 0.7251911944
2625000000 0.5474734156 0.7241987332
2626000000 0.5493573382 0.7232016695
2627000000 0.5512347605 0.7222000236
2628000000 0.5531056585 0.7211938165
2629000000 0.5549700077 0.7201830704
2630000000 0.5568277834 0.7191678083
2631000000 0.5586789608 0.7181480542
2632000000 0.5605235147 0.7171238333
2633000000 0.56236142 0.7160951714
2634000000 0.5641926513 0.7150620956
2635000000 0.5660171833 0.7140246338
2636000000 0.5678349906 0.712982815
2637000000 0.5696460475 0.7119366691
2638000000 0.5714503287 0.710886227
2639000000 0.5732478088 0.7098315207
2640000000 0.5750384623 0.708772583
2641000000 0.5768222641 0.7077094478
2642000000 0.5785991889 0.7066421499
2643000000 0.5803692118 0.7055707251
2644000000 0.5821323081 0.7044952102
2645000000 0.5838884531 0.703415643
2646000000 0.5856376225 0.7023320621
2647000000 0.5873797922 0.7012445071
2648000000 0.5891149385 0.7001530187
2649000000 0.5908430379 0.6990576383
2650000000 0.5925640673 0.6979584084
2651000000 0.5942780042 0.6968553723
2652000000 0.595984826 0.6957485743
2653000000 0.5976845111 0.6946380594
2654000000 0.599377038 0.6935238737
2655000000 0.6010623858 0.6924060641
2656000000 0.6027405341 0.6912846783
2657000000 0.6044114631 0.6901597649
2658000000 0.6060751535 0.6890313732
2659000000 0.6077315866 0.6878995535
2660000000 0.6093807444 0.6867643568
2661000000 0.6110226093 0.6856258349
2662000000 0.6126571646 0.6844840403
2663000000 0.6142843942 0.6833390264
2664000000 0.6159042828 0.6821908471
2665000000 0.6175168156 0.6810395572
2666000000 0.6191219786 0.6798852122
2667000000 0.6207197589 0.6787278681
2668000000 0.622310144 0.6775675818
2669000000 0.6238931223 0.6764044106
2670000000 0.6254686831 0.6752384126
2671000000 0.6270368166 0.6740696464
2672000000 0.6285975137 0.6728981711
2673000000 0.6301507664 0.6717240466
2674000000 0.6316965673 0.670547333
2675000000 0.6332349101 0.6693680913
2676000000 0.6347657896 0.6681863825
2677000000 0.6362892011 0.6670022685
2678000000 0.6378051414 0.6658158115
2679000000 0.6393136078 0.664627074
2680000000 0.6408145988 0.663436119
2681000000 0.642308114 0.6622430098
2682000000 0.6437941539 0.6610478102
2683000000 0.64527272 0.6598505841
2684000000 0.6467438148 0.6586513958
2685000000 0.6482074421 0.6574503099
2686000000 0.6496636064 0.6562473911
2687000000 0.6511123135 0.6550427046
2688000000 0.6525535703 0.6538363154
2689000000 0.6539873846 0.6526282891
2690000000 0.6554137654 0.6514186909
2691000000 0.6568327229 0.6502075867
2692000000 0.6582442682 0.648995042
2693000000 0.6596484136 0.6477811227
2694000000 0.6610451725 0.6465658945
2695000000 0.6624345595 0.6453494231
2696000000 0.6638165902 0.6441317744
2697000000 0.6651912814 0.642913014
2698000000 0.666558651 0.6416932076
2699000000 0.667918718 0.6404724207
2700000000 0.6692715025 0.6392507187
