! PRELIMINARY bare PCB unless shell_eps > 0; see README.md
! L220 output ($1N324), with L220 and C216 excluded and C217 DNP
# Hz S RI R 50
2200000000 -0.1023715675 0.5807664051
2201000000 -0.09516867675 0.5875237154
2202000000 -0.08790066603 0.5938924808
2203000000 -0.08059444881 0.5998821016
2204000000 -0.07327531216 0.6055040192
2205000000 -0.06596675322 0.6107715152
2206000000 -0.05869033849 0.6156994959
2207000000 -0.05146558727 0.6203042665
2208000000 -0.04430987991 0.6246032963
2209000000 -0.03723839166 0.6286149787
2210000000 -0.03026405225 0.6323583881
2211000000 -0.02339753125 0.6358530361
2212000000 -0.01664724894 0.6391186311
2213000000 -0.01001941213 0.642174842
2214000000 -0.003518073957 0.6450410699
2215000000 0.002854783195 0.6477362303
2216000000 0.009099143289 0.6502785469
2217000000 0.01521683209 0.6526853606
2218000000 0.02121137442 0.6549729547
2219000000 0.02708783507 0.6571563976
2220000000 0.03285264562 0.6592494066
2221000000 0.03851341932 0.6612642312
2222000000 0.04407875657 0.6632115593
2223000000 0.0495580432 0.6651004453
2224000000 0.05496124444 0.6669382622
2225000000 0.0602986967 0.6687306762
2226000000 0.06558090006 0.670481645
2227000000 0.07081831371 0.672193439
2228000000 0.07602115687 0.6738666847
2229000000 0.08119921757 0.6755004293
2230000000 0.08636167144 0.6770922264
2231000000 0.09151691259 0.6786382397
2232000000 0.09667239856 0.680133365
2233000000 0.101834511 0.6815713673
2234000000 0.1070084338 0.6829450323
2235000000 0.1121980496 0.6842463294
2236000000 0.1174058557 0.6854665841
2237000000 0.1226329017 0.6865966584
2238000000 0.1278787464 0.687627136
2239000000 0.133141438 0.6885485098
2240000000 0.1384175139 0.6893513706
2241000000 0.1437020237 0.690026593
2242000000 0.1489885715 0.6905655177
2243000000 0.1542693791 0.6909601266
2244000000 0.1595353689 0.6912032098
2245000000 0.1647762634 0.6912885213
2246000000 0.1699807037 0.6912109232
2247000000 0.1751363809 0.6909665143
2248000000 0.180230183 0.6905527437
2249000000 0.1852483526 0.6899685074
2250000000 0.190176654 0.689214226
2251000000 0.195000549 0.6882919038
2252000000 0.1997053774 0.6872051676
2253000000 0.2042765409 0.6859592862
2254000000 0.2086996887 0.684561168
2255000000 0.212960901 0.6830193398
2256000000 0.2170468703 0.6813439041
2257000000 0.220945076 0.6795464782
2258000000 0.2246439528 0.6776401134
2259000000 0.2281330486 0.675639197
2260000000 0.2314031714 0.6735593376
2261000000 0.2344465234 0.6714172345
2262000000 0.2372568202 0.6692305342
2263000000 0.2398293946 0.667017674
2264000000 0.2421612826 0.664797716
2265000000 0.244251292 0.6625901718
2266000000 0.2461000519 0.6604148218
2267000000 0.2477100434 0.6582915288
2268000000 0.2490856096 0.6562400509
2269000000 0.2502329473 0.6542798526
2270000000 0.2511600779 0.6524299188
2271000000 0.2518768003 0.6507085724
2272000000 0.252394624 0.6491332977
2273000000 0.2527266854 0.6477205716
2274000000 0.2528876465 0.6464857042
2275000000 0.2528935783 0.6454426915
2276000000 0.25276183 0.6446040794
2277000000 0.2525108844 0.6439808435
2278000000 0.2521602032 0.6435822829
2279000000 0.2517300614 0.6434159314
2280000000 0.251241375 0.6434874852
2281000000 0.250715522 0.6438007492
2282000000 0.2501741596 0.6443576009
2283000000 0.2496390389 0.6451579736
2284000000 0.2491318199 0.6461998571
2285000000 0.2486738881 0.6474793182
2286000000 0.2482861741 0.6489905383
2287000000 0.2479889793 0.6507258685
2288000000 0.2478018081 0.6526759017
2289000000 0.2477432093 0.6548295605
2290000000 0.2478306273 0.6571741999
2291000000 0.2480802651 0.6596957231
2292000000 0.2485069601 0.6623787098
2293000000 0.2491240741 0.6652065556
2294000000 0.2499433973 0.6681616195
2295000000 0.2509750688 0.6712253801
2296000000 0.2522275125 0.6743785973
2297000000 0.2537073902 0.6776014774
2298000000 0.2554195703 0.6808738421
2299000000 0.2573671144 0.684175297
2300000000 0.2595512795 0.6874853996
2301000000 0.2619715368 0.6907838248
2302000000 0.2646256062 0.694050526
2303000000 0.2675095055 0.6972658906
2304000000 0.270617614 0.7004108881
2305000000 0.2739427491 0.7034672102
2306000000 0.2774762557 0.7064174009
2307000000 0.2812081057 0.7092449761
2308000000 0.2851270079 0.7119345315
2309000000 0.2892205256 0.7144718377
2310000000 0.2934752024 0.7168439235
2311000000 0.297876692 0.7190391442
2312000000 0.3024098931 0.7210472374
2313000000 0.3070590867 0.7228593637
2314000000 0.3118080747 0.7244681348
2315000000 0.3166403175 0.7258676267
2316000000 0.3215390711 0.7270533804
2317000000 0.3264875202 0.7280223886
2318000000 0.331468908 0.728773071
2319000000 0.3364666597 0.7293052372
2320000000 0.3414645003 0.729620039
2321000000 0.3464465647 0.7297199129
2322000000 0.3513974998 0.7296085129
2323000000 0.3563025568 0.7292906358
2324000000 0.3611476754 0.7287721401
2325000000 0.365919557 0.7280598579
2326000000 0.3706057272 0.7271615038
2327000000 0.3751945892 0.726085579
2328000000 0.3796754653 0.7248412745
2329000000 0.3840386282 0.723438372
2330000000 0.3882753223 0.7218871458
2331000000 0.392377775 0.7201982654
2332000000 0.3963391972 0.7183827004
2333000000 0.4001537767 0.7164516283
2334000000 0.4038166608 0.7144163465
2335000000 0.4073239332 0.7122881887
2336000000 0.4106725818 0.7100784471
2337000000 0.4138604619 0.7077982999
2338000000 0.4168862526 0.7054587461
2339000000 0.4197494095 0.7030705468
2340000000 0.4224501133 0.7006441727
2341000000 0.4249892154 0.6981897608
2342000000 0.4273681821 0.6957170759
2343000000 0.4295890374 0.6932354819
2344000000 0.4316543055 0.6907539179
2345000000 0.4335669543 0.6882808827
2346000000 0.4353303395 0.6858244252
2347000000 0.4369481517 0.6833921407
2348000000 0.4384243655 0.6809911736
2349000000 0.4397631915 0.6786282242
2350000000 0.440969033 0.6763095608
2351000000 0.4420464456 0.6740410355
2352000000 0.4430001019 0.671828103
2353000000 0.4438347608 0.6696758422
2354000000 0.4445552406 0.6675889796
2355000000 0.4451663981 0.6655719142
2356000000 0.4456731114 0.6636287426
2357000000 0.4460802676 0.6617632841
2358000000 0.4463927551 0.6599791056
2359000000 0.4466154598 0.6582795445
2360000000 0.4467532647 0.6566677305
2361000000 0.4468110537 0.655146605
2362000000 0.4467937178 0.6537189379
2363000000 0.4467061633 0.6523873413
2364000000 0.4465533234 0.6511542804
2365000000 0.4463401697 0.6500220809
2366000000 0.4460717251 0.6489929325
2367000000 0.4457530777 0.6480688895
2368000000 0.4453893935 0.6472518679
2369000000 0.4449859287 0.6465436382
2370000000 0.4445480412 0.6459458162
2371000000 0.4440811996 0.64545985
2372000000 0.4435909905 0.6450870047
2373000000 0.4430831235 0.6448283447
2374000000 0.4425634325 0.644684714
2375000000 0.442037875 0.6446567146
2376000000 0.4415125264 0.644744685
2377000000 0.4409935727 0.6449486769
2378000000 0.4404872978 0.6452684325
2379000000 0.4400000682 0.6457033623
2380000000 0.4395383139 0.6462525234
2381000000 0.4391085051 0.6469146003
2382000000 0.438717127 0.6476878863
2383000000 0.4383706497 0.6485702686
2384000000 0.4380754969 0.6495592155
2385000000 0.437838011 0.6506517671
2386000000 0.437664417 0.6518445298
2387000000 0.4375607839 0.6531336744
2388000000 0.4375329858 0.6545149385
2389000000 0.4375866619 0.6559836333
2390000000 0.4377271762 0.6575346543
2391000000 0.4379595781 0.6591624975
2392000000 0.4382885635 0.660861279
2393000000 0.4387184377 0.6626247596
2394000000 0.4392530802 0.6644463737
2395000000 0.4398959115 0.6663192617
2396000000 0.4406498641 0.6682363067
2397000000 0.4415173556 0.6701901745
2398000000 0.4425002667 0.6721733563
2399000000 0.4435999225 0.6741782146
2400000000 0.4448170791 0.676197031
2401000000 0.4461519145 0.6782220558
2402000000 0.4476040248 0.6802455581
2403000000 0.4491724248 0.6822598775
2404000000 0.4508555549 0.6842574754
2405000000 0.4526512922 0.6862309852
2406000000 0.4545569671 0.6881732622
2407000000 0.4565693848 0.6900774317
2408000000 0.4586848516 0.6919369342
2409000000 0.4608992061 0.6937455686
2410000000 0.4632078537 0.6954975322
2411000000 0.465605806 0.6971874563
2412000000 0.468087723 0.6988104385
2413000000 0.4706479587 0.7003620701
2414000000 0.4732806086 0.7018384593
2415000000 0.4759795602 0.7032362486
2416000000 0.4787385435 0.7045526279
2417000000 0.4815511841 0.7057853417
2418000000 0.4844110547 0.7069326914
2419000000 0.4873117282 0.707993532
2420000000 0.4902468282 0.7089672637
2421000000 0.4932100795 0.7098538181
2422000000 0.4961953559 0.7106536402
2423000000 0.4991967253 0.7113676647
2424000000 0.5022084929 0.711997289
2425000000 0.5052252399 0.7125443413
2426000000 0.5082418589 0.7130110458
2427000000 0.5112535855 0.7133999846
2428000000 0.5142560248 0.7137140566
2429000000 0.5172451738 0.7139564346
2430000000 0.5202174387 0.714130521
2431000000 0.5231696475 0.7142399018
2432000000 0.5260990574 0.7142883007
2433000000 0.5290033572 0.7142795326
2434000000 0.5318806651 0.7142174587
2435000000 0.5347295214 0.7141059414
2436000000 0.5375488768 0.7139488019
2437000000 0.5403380764 0.7137497791
2438000000 0.5430968394 0.7135124917
2439000000 0.5458252354 0.713240403
2440000000 0.5485236574 0.7129367883
2441000000 0.5511927913 0.7126047075
2442000000 0.5538335842 0.7122469796
2443000000 0.5564472091 0.7118661632
2444000000 0.5590350295 0.7114645398
2445000000 0.5615985622 0.7110441024
2446000000 0.5641394402 0.7106065476
2447000000 0.5666593748 0.7101532729
2448000000 0.569160119 0.709685378
2449000000 0.5716434316 0.7092036695
2450000000 0.5741110424 0.7087086712
2451000000 0.5765646201 0.7082006362
2452000000 0.5790057414 0.707679564
2453000000 0.5814358632 0.70714522
2454000000 0.5838562983 0.7065971578
2455000000 0.586268193 0.7060347439
2456000000 0.5886725094 0.7054571851
2457000000 0.5910700103 0.704863556
2458000000 0.5934612484 0.7042528289
2459000000 0.5958465587 0.7036239041
2460000000 0.5982260556 0.7029756398
2461000000 0.6005996324 0.7023068823
2462000000 0.6029669656 0.7016164959
2463000000 0.6053275221 0.7009033904
2464000000 0.6076805697 0.700166549
2465000000 0.6100251909 0.6994050523
2466000000 0.6123602991 0.6986181022
2467000000 0.6146846579 0.6978050417
2468000000 0.6169969021 0.6969653727
2469000000 0.6192955604 0.6960987711
2470000000 0.6215790798 0.6952050983
2471000000 0.6238458511 0.6942844099
2472000000 0.6260942347 0.6933369606
2473000000 0.6283225867 0.6923632068
2474000000 0.6305292852 0.6913638047
2475000000 0.6327127553 0.6903396059
2476000000 0.634871494 0.6892916503
2477000000 0.6370040931 0.6882211551
2478000000 0.6391092608 0.6871295019
2479000000 0.6411858416 0.6860182209
2480000000 0.6432328333 0.6848889732
2481000000 0.6452494022 0.6837435309
2482000000 0.6472348957 0.6825837558
2483000000 0.6491888512 0.6814115769
2484000000 0.6511110037 0.6802289669
2485000000 0.6530012887 0.6790379183
2486000000 0.6548598435 0.677840419
2487000000 0.6566870045 0.6766384287
2488000000 0.6584833028 0.6754338554
2489000000 0.6602494555 0.674228533
2490000000 0.661986356 0.6730242
2491000000 0.6636950602 0.6718224798
2492000000 0.6653767721 0.6706248631
2493000000 0.667032826 0.6694326916
2494000000 0.6686646679 0.6682471449
2495000000 0.6702738353 0.6670692292
2496000000 0.6718619354 0.665899769
2497000000 0.6734306233 0.6647394009
2498000000 0.6749815795 0.663588571
2499000000 0.6765164866 0.662447534
2500000000 0.6780370075 0.6613163566
2501000000 0.6795447633 0.6601949215
2502000000 0.6810413121 0.6590829362
2503000000 0.6825281295 0.6579799421
2504000000 0.6840065901 0.6568853278
2505000000 0.6854779512 0.6557983432
2506000000 0.6869433375 0.6547181156
2507000000 0.6884037294 0.6536436679
2508000000 0.6898599526 0.6525739377
2509000000 0.6913126698 0.6515077972
2510000000 0.6927623765 0.6504440743
2511000000 0.6942093978 0.6493815737
2512000000 0.6956538885 0.6483190981
2513000000 0.6970958358 0.6472554691
2514000000 0.6985350644 0.6461895476
2515000000 0.6999712443 0.6451202536
2516000000 0.7014039 0.6440465841
2517000000 0.7028324233 0.6429676303
2518000000 0.7042560864 0.6418825928
2519000000 0.7056740581 0.6407907947
2520000000 0.7070854203 0.6396916934
2521000000 0.7084891865 0.6385848891
2522000000 0.709884321 0.6374701322
2523000000 0.7112697583 0.6363473269
2524000000 0.7126444235 0.6352165334
2525000000 0.714007252 0.6340779672
2526000000 0.7153572092 0.6329319963
2527000000 0.71669331 0.6317791349
2528000000 0.7180146366 0.6306200365
2529000000 0.7193203559 0.6294554834
2530000000 0.7206097349 0.6282863748
2531000000 0.7218821552 0.6271137133
2532000000 0.7231371245 0.6259385892
2533000000 0.7243742876 0.6247621639
2534000000 0.7255934339 0.6235856521
2535000000 0.7267945033 0.6224103032
2536000000 0.7279775899 0.621237382
2537000000 0.7291429426 0.6200681491
2538000000 0.730290964 0.618903842
2539000000 0.7314222066 0.6177456557
2540000000 0.7325373667 0.616594724
2541000000 0.7336372765 0.6154521025
2542000000 0.734722893 0.6143187519
2543000000 0.7357952867 0.6131955229
2544000000 0.7368556267 0.612083143
2545000000 0.7379051658 0.6109822049
2546000000 0.7389452233 0.609893157
2547000000 0.7399771675 0.6088162954
2548000000 0.7410023965 0.6077517594
2549000000 0.7420223197 0.6066995282
2550000000 0.743038338 0.6056594201
2551000000 0.7440518244 0.6046310948
2552000000 0.7450641058 0.6036140569
2553000000 0.7460764435 0.6026076628
2554000000 0.747090017 0.6016111288
2555000000 0.7481059069 0.6006235418
2556000000 0.7491250804 0.5996438718
2557000000 0.7501483778 0.5986709859
2558000000 0.7511765012 0.5977036644
2559000000 0.7522100049 0.596740617
2560000000 0.7532492881 0.5957805013
2561000000 0.7542945894 0.5948219413
2562000000 0.7553459842 0.5938635467
2563000000 0.7564033839 0.5929039322
2564000000 0.7574665375 0.5919417369
2565000000 0.758535036 0.5909756432
2566000000 0.7596083183 0.5900043956
2567000000 0.7606856797 0.5890268175
2568000000 0.7617662824 0.5880418282
2569000000 0.7628491677 0.5870484576
2570000000 0.7639332702 0.5860458599
2571000000 0.7650174332 0.5850333248
2572000000 0.7661004253 0.5840102876
2573000000 0.7671809588 0.5829763369
2574000000 0.7682577074 0.5819312196
2575000000 0.7693293261 0.5808748449
2576000000 0.7703944704 0.5798072842
2577000000 0.771451815 0.5787287708
2578000000 0.7725000737 0.5776396952
2579000000 0.773538017 0.5765406001
2580000000 0.7745644904 0.5754321717
2581000000 0.7755784302 0.5743152299
2582000000 0.7765788791 0.5731907161
2583000000 0.7775649996 0.5720596799
2584000000 0.778536086 0.5709232637
2585000000 0.7794915742 0.569782686
2586000000 0.7804310499 0.5686392244
2587000000 0.7813542541 0.5674941965
2588000000 0.782261087 0.5663489419
2589000000 0.783151609 0.565204802
2590000000 0.7840260398 0.5640631016
2591000000 0.7848847551 0.5629251298
2592000000 0.7857282812 0.5617921213
2593000000 0.7865572874 0.5606652391
2594000000 0.7873725762 0.5595455577
2595000000 0.7881750715 0.558434048
2596000000 0.7889658058 0.5573315634
2597000000 0.789745905 0.5562388278
2598000000 0.7905165726 0.555156425
2599000000 0.7912790716 0.5540847907
2600000000 0.7920347075 0.5530242063
2601000000 0.7927848086 0.5519747947
2602000000 0.7935307075 0.5509365188
2603000000 0.7942737216 0.549909182
2604000000 0.7950151345 0.5488924308
2605000000 0.7957561772 0.5478857599
2606000000 0.7964980104 0.5468885195
2607000000 0.7972417078 0.5458999243
2608000000 0.7979882406 0.5449190647
2609000000 0.7987384628 0.5439449198
2610000000 0.7994930994 0.5429763717
2611000000 0.800252735 0.5420122213
2612000000 0.801017805 0.5410512055
2613000000 0.8017885893 0.540092015
2614000000 0.8025652071 0.5391333129
2615000000 0.8033476146 0.5381737537
2616000000 0.8041356051 0.5372120026
2617000000 0.8049288106 0.5362467543
2618000000 0.8057267063 0.5352767521
2619000000 0.8065286169 0.5343008056
2620000000 0.8073337254 0.533317808
2621000000 0.8081410827 0.5323267523
2622000000 0.8089496207 0.5313267461
2623000000 0.8097581656 0.5303170247
2624000000 0.8105654532 0.5292969626
2625000000 0.8113701456 0.5282660837
2626000000 0.8121708483 0.5272240684
2627000000 0.812966129 0.5261707598
2628000000 0.8137545358 0.5251061668
2629000000 0.8145346166 0.5240304658
2630000000 0.8153049379 0.5229439996
2631000000 0.8160641037 0.5218472745
2632000000 0.816810774 0.520740955
2633000000 0.8175436817 0.5196258568
2634000000 0.8182616499 0.5185029374
2635000000 0.8189636069 0.5173732852
2636000000 0.8196486 0.516238107
2637000000 0.8203158086 0.5150987136
2638000000 0.8209645541 0.5139565048
2639000000 0.8215943094 0.5128129525
2640000000 0.8222047052 0.5116695836
2641000000 0.8227955357 0.510527962
2642000000 0.8233667603 0.5093896701
2643000000 0.8239185052 0.5082562909
2644000000 0.8244510615 0.507129389
2645000000 0.8249648817 0.5060104928
2646000000 0.8254605743 0.5049010776
2647000000 0.8259388964 0.5038025482
2648000000 0.8264007445 0.5027162243
2649000000 0.8268471437 0.5016433253
2650000000 0.827279235 0.5005849579
2651000000 0.8276982623 0.4995421048
2652000000 0.8281055569 0.4985156145
2653000000 0.8285025224 0.4975061941
2654000000 0.828890618 0.4965144028
2655000000 0.8292713419 0.495540648
2656000000 0.829646214 0.4945851835
2657000000 0.8300167591 0.4936481087
2658000000 0.8303844899 0.4927293712
2659000000 0.8307508906 0.4918287698
2660000000 0.8311174014 0.4909459604
2661000000 0.8314854036 0.4900804634
2662000000 0.8318562057 0.4892316718
2663000000 0.8322310308 0.4883988622
2664000000 0.8326110057 0.4875812057
2665000000 0.832997151 0.486777781
2666000000 0.8333903732 0.4859875875
2667000000 0.8337914581 0.4852095596
2668000000 0.8342010662 0.4844425816
2669000000 0.8346197304 0.4836855023
2670000000 0.8350478541 0.4829371502
2671000000 0.8354857124 0.4821963484
2672000000 0.8359334548 0.4814619291
2673000000 0.8363911087 0.4807327473
2674000000 0.8368585853 0.4800076942
2675000000 0.8373356868 0.4792857095
2676000000 0.8378221148 0.4785657925
2677000000 0.8383174797 0.477847012
2678000000 0.8388213114 0.4771285151
2679000000 0.8393330707 0.476409534
2680000000 0.8398521611 0.4756893923
2681000000 0.8403779417 0.4749675085
2682000000 0.8409097393 0.4742433987
2683000000 0.8414468618 0.4735166777
2684000000 0.8419886101 0.4727870578
2685000000 0.842534291 0.4720543472
2686000000 0.8430832283 0.471318446
2687000000 0.8436347743 0.470579341
2688000000 0.8441883197 0.4698370995
2689000000 0.8447433026 0.4690918619
2690000000 0.845299217 0.4683438332
2691000000 0.8458556191 0.4675932733
2692000000 0.8464121329 0.4668404874
2693000000 0.8469684542 0.4660858153
2694000000 0.8475243534 0.4653296207
2695000000 0.8480796765 0.4645722798
2696000000 0.8486343449 0.4638141708
2697000000 0.8491883535 0.463055663
2698000000 0.8497417678 0.4622971064
2699000000 0.8502947197 0.4615388224
2700000000 0.8508474014 0.4607810941
