! PRELIMINARY bare PCB unless shell_eps > 0; see README.md
! L220 output ($1N324), with L220 and C216 excluded and C217 DNP
# Hz S RI R 50
2200000000 0.003245491901 0.03377086236
2201000000 -0.003792752192 0.04046226423
2202000000 -0.01047203438 0.04758074556
2203000000 -0.0167612333 0.05509065996
2204000000 -0.02263311425 0.06295386684
2205000000 -0.02806453997 0.07113016349
2206000000 -0.03303663284 0.0795777353
2207000000 -0.03753488708 0.08825361851
2208000000 -0.04154922994 0.09711417011
2209000000 -0.04507403168 0.106115539
2210000000 -0.04810806461 0.1152141328
2211000000 -0.05065441229 0.1243670751
2212000000 -0.05272033039 0.1335326468
2213000000 -0.05431706147 0.142670708
2214000000 -0.05545960639 0.1517430935
2215000000 -0.05616645556 0.1607139795
2216000000 -0.05645928392 0.1695502158
2217000000 -0.05636261364 0.1782216205
2218000000 -0.05590344915 0.1867012341
2219000000 -0.0551108893 0.1949655306
2220000000 -0.05401572178 0.2029945827
2221000000 -0.0526500049 0.2107721809
2222000000 -0.05104664227 0.2182859043
2223000000 -0.0492389556 0.2255271441
2224000000 -0.04726026107 0.2324910796
2225000000 -0.04514345443 0.2391766075
2226000000 -0.04292061 0.2455862267
2227000000 -0.04062259835 0.2517258802
2228000000 -0.0382787272 0.2576047562
2229000000 -0.03591640979 0.2632350537
2230000000 -0.03356086441 0.268631713
2231000000 -0.03123484855 0.273812118
2232000000 -0.02895843046 0.2787957724
2233000000 -0.02674880049 0.2836039556
2234000000 -0.02462012389 0.2882593627
2235000000 -0.02258343649 0.2927857338
2236000000 -0.02064658379 0.2972074762
2237000000 -0.01881420357 0.3015492867
2238000000 -0.01708775145 0.3058357775
2239000000 -0.01546556862 0.3100911103
2240000000 -0.01394298979 0.3143386444
2241000000 -0.0125124896 0.318600602
2242000000 -0.01116386476 0.322897756
2243000000 -0.009884448903 0.3272491428
2244000000 -0.008659356896 0.3316718043
2245000000 -0.007471754788 0.3361805619
2246000000 -0.006303151395 0.3407878247
2247000000 -0.005133707309 0.3455034343
2248000000 -0.00394255692 0.3503345466
2249000000 -0.00270813893 0.3552855537
2250000000 -0.001408530818 0.3603580436
2251000000 -2.178270967e-05 0.3655507993
2252000000 0.001473753806 0.370859837
2253000000 0.003099106227 0.37627848
2254000000 0.004874375187 0.3817974698
2255000000 0.006818445885 0.3874051091
2256000000 0.008948720456 0.3930874372
2257000000 0.01128087456 0.3988284325
2258000000 0.01382864102 0.4046102401
2259000000 0.01660362294 0.4104134212
2260000000 0.01961513841 0.4162172195
2261000000 0.02287009818 0.421999842
2262000000 0.02637291751 0.4277387488
2263000000 0.0301254628 0.4334109495
2264000000 0.03412703288 0.4389933002
2265000000 0.038374375 0.4444627983
2266000000 0.04286173418 0.4497968715
2267000000 0.04758093513 0.4549736555
2268000000 0.05252149472 0.4599722589
2269000000 0.05767076299 0.46477301
2270000000 0.0630140903 0.4693576847
2271000000 0.06853501796 0.4737097101
2272000000 0.07421548896 0.4778143443
2273000000 0.08003607608 0.4816588281
2274000000 0.0859762234 0.4852325084
2275000000 0.09201449813 0.4885269322
2276000000 0.09812884879 0.4915359092
2277000000 0.1042968664 0.494255545
2278000000 0.1104960446 0.4966842427
2279000000 0.116704036 0.498822675
2280000000 0.1228989004 0.5006737278
2281000000 0.129059342 0.5022424158
2282000000 0.1351649333 0.5035357723
2283000000 0.1411963215 0.5045627163
2284000000 0.1471354167 0.5053338966
2285000000 0.1529655575 0.505861519
2286000000 0.158671655 0.5061591565
2287000000 0.1642403111 0.506241547
2288000000 0.1696599117 0.506124381
2289000000 0.1749206934 0.5058240831
2290000000 0.180014784 0.5053575898
2291000000 0.184936216 0.504742127
2292000000 0.1896809145 0.5039949908
2293000000 0.1942466594 0.5031333336
2294000000 0.1986330243 0.5021739596
2295000000 0.2028412922 0.5011331313
2296000000 0.2068743509 0.5000263899
2297000000 0.2107365689 0.4988683922
2298000000 0.2144336562 0.4976727645
2299000000 0.2179725096 0.4964519773
2300000000 0.2213610474 0.4952172397
2301000000 0.2246080354 0.4939784167
2302000000 0.2277229064 0.4927439675
2303000000 0.2307155771 0.4915209081
2304000000 0.2335962642 0.4903147951
2305000000 0.2363753027 0.4891297327
2306000000 0.2390629698 0.4879684004
2307000000 0.2416693155 0.4868321019
2308000000 0.2442040026 0.4857208326
2309000000 0.2466761599 0.4846333647
2310000000 0.2490942474 0.4835673488
2311000000 0.2514659376 0.4825194284
2312000000 0.2537980139 0.481485367
2313000000 0.2560962859 0.4804601843
2314000000 0.2583655234 0.4794382989
2315000000 0.2606094101 0.4784136773
2316000000 0.2628305155 0.4773799835
2317000000 0.2650302867 0.4763307296
2318000000 0.2672090582 0.4752594238
2319000000 0.2693660805 0.4741597134
2320000000 0.2714995649 0.4730255217
2321000000 0.2736067445 0.4718511755
2322000000 0.2756839504 0.4706315228
2323000000 0.2777266994 0.469362038
2324000000 0.2797297942 0.468038914
2325000000 0.2816874319 0.4666591394
2326000000 0.2835933206 0.4652205613
2327000000 0.2854408003 0.463721931
2328000000 0.2872229679 0.4621629344
2329000000 0.2889328026 0.4605442057
2330000000 0.290563291 0.458867325
2331000000 0.292107548 0.4571348003
2332000000 0.2935589347 0.4553500347
2333000000 0.2949111679 0.453517279
2334000000 0.2961584221 0.4516415723
2335000000 0.2972954222 0.4497286703
2336000000 0.2983175245 0.4477849629
2337000000 0.2992207859 0.4458173849
2338000000 0.3000020201 0.4438333178
2339000000 0.3006588409 0.4418404876
2340000000 0.3011896907 0.4398468596
2341000000 0.3015938554 0.4378605302
2342000000 0.3018714656 0.4358896205
2343000000 0.3020234834 0.4339421713
2344000000 0.302051677 0.4320260417
2345000000 0.3019585821 0.4301488135
2346000000 0.3017474522 0.4283177022
2347000000 0.3014221984 0.4265394758
2348000000 0.3009873199 0.4248203841
2349000000 0.3004478274 0.4231660969
2350000000 0.2998091589 0.4215816545
2351000000 0.299077092 0.420071429
2352000000 0.2982576522 0.4186390989
2353000000 0.2973570199 0.417287635
2354000000 0.2963814379 0.4160192993
2355000000 0.2953371194 0.4148356555
2356000000 0.2942301603 0.4137375917
2357000000 0.2930664557 0.4127253541
2358000000 0.2918516223 0.4117985902
2359000000 0.290590928 0.410956403
2360000000 0.28928923 0.4101974113
2361000000 0.2879509221 0.4095198193
2362000000 0.2865798915 0.40892149
2363000000 0.2851794873 0.4084000243
2364000000 0.2837524984 0.4079528423
2365000000 0.2823011442 0.4075772666
2366000000 0.2808270751 0.4072706047
2367000000 0.2793313852 0.4070302311
2368000000 0.2778146348 0.4068536654
2369000000 0.2762768838 0.4067386472
2370000000 0.2747177335 0.4066832045
2371000000 0.2731363783 0.4066857164
2372000000 0.2715316641 0.4067449675
2373000000 0.2699021536 0.4068601941
2374000000 0.2682461969 0.4070311213
2375000000 0.2665620061 0.4072579894
2376000000 0.2648477329 0.4075415714
2377000000 0.2631015474 0.407883179
2378000000 0.2613217169 0.4082846584
2379000000 0.2595066838 0.4087483758
2380000000 0.2576551399 0.409277193
2381000000 0.2557660982 0.4098744329
2382000000 0.2538389587 0.4105438362
2383000000 0.2518735677 0.4112895102
2384000000 0.2498702712 0.4121158696
2385000000 0.2478299593 0.4130275715
2386000000 0.2457541019 0.4140294448
2387000000 0.2436447758 0.4151264154
2388000000 0.2415046812 0.416323429
2389000000 0.2393371491 0.4176253719
2390000000 0.2371461378 0.4190369912
2391000000 0.2349362202 0.4205628171
2392000000 0.232712561 0.4222070855
2393000000 0.2304808844 0.4239736659
2394000000 0.2282474329 0.4258659926
2395000000 0.2260189187 0.427887002
2396000000 0.223802467 0.4300390761
2397000000 0.2216055528 0.4323239936
2398000000 0.2194359329 0.4347428893
2399000000 0.2173015729 0.4372962214
2400000000 0.215210571 0.439983749
2401000000 0.2131710803 0.442804518
2402000000 0.2111912295 0.4457568571
2403000000 0.2092790444 0.4488383831
2404000000 0.2074423704 0.4520460158
2405000000 0.2056887983 0.4553760019
2406000000 0.2040255933 0.4588239468
2407000000 0.2024596287 0.462384856
2408000000 0.2009973257 0.4660531819
2409000000 0.1996445992 0.4698228789
2410000000 0.1984068112 0.4736874629
2411000000 0.1972887314 0.4776400758
2412000000 0.1962945069 0.4816735542
2413000000 0.1954276395 0.4857804999
2414000000 0.1946909727 0.4899533523
2415000000 0.1940866864 0.4941844607
2416000000 0.1936163016 0.4984661566
2417000000 0.1932806925 0.5027908235
2418000000 0.1930801071 0.5071509645
2419000000 0.1930141952 0.5115392652
2420000000 0.1930820441 0.5159486531
2421000000 0.1932822196 0.5203723507
2422000000 0.1936128131 0.5248039224
2423000000 0.1940714936 0.5292373159
2424000000 0.1946555626 0.5336668944
2425000000 0.1953620126 0.5380874632
2426000000 0.1961875868 0.5424942875
2427000000 0.1971288399 0.5468831023
2428000000 0.1981821983 0.5512501156
2429000000 0.1993440195 0.5555920027
2430000000 0.2006106489 0.559905894
2431000000 0.2019784737 0.5641893558
2432000000 0.2034439732 0.568440365
2433000000 0.2050037642 0.572657277
2434000000 0.2066546409 0.5768387905
2435000000 0.2083936097 0.5809839059
2436000000 0.2102179168 0.585091882
2437000000 0.2121250705 0.589162189
2438000000 0.2141128553 0.5931944609
2439000000 0.2161793399 0.5971884461
2440000000 0.2183228788 0.6011439591
2441000000 0.2205421062 0.6050608328
2442000000 0.2228359241 0.6089388727
2443000000 0.2252034844 0.6127778144
2444000000 0.2276441652 0.616577284
2445000000 0.2301575422 0.620336763
2446000000 0.2327433557 0.6240555578
2447000000 0.2354014738 0.627732775
2448000000 0.2381318533 0.6313673017
2449000000 0.2409344979 0.634957792
2450000000 0.2438094152 0.6385026601
2451000000 0.2467565738 0.6420000791
2452000000 0.24977586 0.6454479862
2453000000 0.2528670372 0.6488440944
2454000000 0.2560297054 0.6521859087
2455000000 0.2592632654 0.6554707495
2456000000 0.2625668854 0.6586957799
2457000000 0.2659394721 0.6618580374
2458000000 0.2693796464 0.6649544699
2459000000 0.2728857243 0.667981975
2460000000 0.2764557035 0.6709374411
2461000000 0.2800872556 0.6738177907
2462000000 0.2837777242 0.6766200246
2463000000 0.2875241289 0.6793412658
2464000000 0.291323176 0.6819788033
2465000000 0.295171274 0.6845301334
2466000000 0.2990645554 0.6869930001
2467000000 0.3029989034 0.6893654316
2468000000 0.3069699831 0.6916457731
2469000000 0.3109732779 0.6938327161
2470000000 0.3150041284 0.6959253221
2471000000 0.3190577751 0.697923042
2472000000 0.3231294028 0.6998257292
2473000000 0.3272141873 0.7016336475
2474000000 0.3313073422 0.7033474724
2475000000 0.3354041662 0.7049682874
2476000000 0.339500089 0.7064975731
2477000000 0.3435907166 0.7079371919
2478000000 0.3476718735 0.7092893658
2479000000 0.3517396423 0.7105566502
2480000000 0.3557903998 0.7117419021
2481000000 0.3598208487 0.7128482444
2482000000 0.3638280446 0.7138790265
2483000000 0.3678094184 0.7148377815
2484000000 0.3717627921 0.7157281818
2485000000 0.3756863902 0.7165539921
2486000000 0.3795788444 0.7173190225
2487000000 0.3834391926 0.7180270803
2488000000 0.3872668719 0.7186819234
2489000000 0.3910617062 0.7192872149
2490000000 0.3948238879 0.7198464791
2491000000 0.3985539544 0.7203630611
2492000000 0.4022527603 0.7208400894
2493000000 0.4059214444 0.7212804425
2494000000 0.4095613941 0.72168672
2495000000 0.4131742058 0.7220612184
2496000000 0.4167616427 0.7224059127
2497000000 0.4203255919 0.722722443
2498000000 0.4238680192 0.7230121068
2499000000 0.4273909241 0.7232758575
2500000000 0.4308962955 0.7235143079
2501000000 0.4343860682 0.7237277399
2502000000 0.4378620808 0.7239161196
2503000000 0.4413260374 0.724079117
2504000000 0.444779471 0.7242161304
2505000000 0.4482237112 0.7243263162
2506000000 0.4516598567 0.7244086207
2507000000 0.4550887512 0.7244618162
2508000000 0.4585109652 0.7244845396
2509000000 0.4619267827 0.7244753319
2510000000 0.4653361931 0.7244326803
2511000000 0.4687388893 0.7243550592
2512000000 0.4721342703 0.7242409722
2513000000 0.4755214501 0.7240889921
2514000000 0.4788992708 0.7238978004
2515000000 0.4822663218 0.7236662229
2516000000 0.4856209625 0.7233932642
2517000000 0.4889613496 0.7230781372
2518000000 0.4922854679 0.7227202895
2519000000 0.4955911643 0.7223194252
2520000000 0.4988761841 0.7218755218
2521000000 0.5021382092 0.7213888427
2522000000 0.5053748974 0.7208599433
2523000000 0.5085839223 0.7202896736
2524000000 0.5117630124 0.7196791738
2525000000 0.5149099905 0.7190298659
2526000000 0.5180228102 0.7183434398
2527000000 0.521099591 0.7176218349
2528000000 0.5241386503 0.7168672172
2529000000 0.5271385325 0.716081952
2530000000 0.5300980335 0.7152685743
2531000000 0.5330162218 0.7144297545
2532000000 0.5358924544 0.7135682636
2533000000 0.5387263884 0.7126869348
2534000000 0.5415179872 0.7117886255
2535000000 0.5442675218 0.7108761776
2536000000 0.5469755668 0.7099523791
2537000000 0.5496429918 0.7090199258
2538000000 0.5522709474 0.7080813848
2539000000 0.5548608468 0.7071391597
2540000000 0.5574143434 0.7061954598
2541000000 0.559933304 0.7052522705
2542000000 0.5624197787 0.7043113293
2543000000 0.5648759684 0.7033741047
2544000000 0.5673041892 0.7024417803
2545000000 0.5697068352 0.7015152431
2546000000 0.5720863408 0.7005950766
2547000000 0.5744451414 0.6996815599
2548000000 0.5767856354 0.6987746702
2549000000 0.5791101464 0.6978740918
2550000000 0.5814208867 0.696979229
2551000000 0.5837199231 0.6960892235
2552000000 0.5860091456 0.6952029765
2553000000 0.5882902388 0.6943191743
2554000000 0.5905646566 0.6934363178
2555000000 0.5928336022 0.6925527539
2556000000 0.5950980105 0.6916667108
2557000000 0.5973585373 0.6907763332
2558000000 0.5996155513 0.6898797208
2559000000 0.6018691323 0.6889749652
2560000000 0.6041190739 0.6880601885
2561000000 0.6063648909 0.6871335798
2562000000 0.6086058319 0.6861934317
2563000000 0.6108408955 0.6852381731
2564000000 0.613068852 0.6842664013
2565000000 0.6152882676 0.68327691
2566000000 0.617497533 0.682268714
2567000000 0.6196948943 0.6812410701
2568000000 0.6218784868 0.6801934936
2569000000 0.6240463703 0.6791257708
2570000000 0.6261965653 0.678037966
2571000000 0.6283270908 0.6769304243
2572000000 0.6304360011 0.6758037694
2573000000 0.6325214223 0.6746588964
2574000000 0.6345815878 0.6734969606
2575000000 0.6366148715 0.6723193605
2576000000 0.6386198188 0.6711277184
2577000000 0.6405951751 0.6699238557
2578000000 0.64253991 0.6687097656
2579000000 0.6444532385 0.6674875822
2580000000 0.6463346379 0.6662595484
2581000000 0.6481838597 0.6650279801
2582000000 0.6500009382 0.663795231
2583000000 0.6517861927 0.6625636553
2584000000 0.6535402264 0.6613355711
2585000000 0.6552639199 0.660113224
2586000000 0.6569584197 0.6588987521
2587000000 0.6586251233 0.6576941526
2588000000 0.6602656591 0.6565012505
2589000000 0.6618818636 0.6553216706
2590000000 0.6634757535 0.6541568123
2591000000 0.665049497 0.6530078282
2592000000 0.6666053805 0.6518756067
2593000000 0.6681457751 0.6507607592
2594000000 0.6696731004 0.6496636114
2595000000 0.6711897885 0.6485841991
2596000000 0.6726982472 0.6475222697
2597000000 0.674200824 0.646477287
2598000000 0.6756997709 0.6454484415
2599000000 0.6771972112 0.6444346646
2600000000 0.6786951077 0.6434346476
2601000000 0.6801952343 0.6424468636
2602000000 0.6816991506 0.6414695936
2603000000 0.6832081796 0.640500955
2604000000 0.6847233898 0.6395389336
2605000000 0.6862455811 0.6385814163
2606000000 0.6877752754 0.6376262261
2607000000 0.6893127114 0.6366711581
2608000000 0.6908578444 0.635714015
2609000000 0.6924103504 0.6347526429
2610000000 0.6939696347 0.6337849665
2611000000 0.695534845 0.6328090215
2612000000 0.6971048884 0.6318229866
2613000000 0.6986784527 0.6308252123
2614000000 0.7002540302 0.6298142459
2615000000 0.7018299457 0.6287888551
2616000000 0.7034043862 0.6277480454
2617000000 0.7049754328 0.6266910759
2618000000 0.7065410948 0.6256174688
2619000000 0.7080993436 0.624527016
2620000000 0.7096481482 0.6234197802
2621000000 0.7111855095 0.622296092
2622000000 0.7127094947 0.6211565428
2623000000 0.7142182694 0.6200019726
2624000000 0.7157101289 0.6188334549
2625000000 0.7171835264 0.6176522767
2626000000 0.7186370987 0.6164599159
2627000000 0.7200696884 0.6152580153
2628000000 0.7214803632 0.6140483539
2629000000 0.7228684303 0.6128328166
2630000000 0.7242334476 0.6116133617
2631000000 0.7255752301 0.6103919878
2632000000 0.7268938524 0.6091707003
2633000000 0.7281896463 0.6079514773
2634000000 0.7294631946 0.6067362374
2635000000 0.7307153206 0.605526807
2636000000 0.7319470732 0.6043248911
2637000000 0.7331597092 0.603132045
2638000000 0.7343546714 0.6019496494
2639000000 0.7355335638 0.6007788881
2640000000 0.7366981251 0.5996207293
2641000000 0.7378501986 0.5984759108
2642000000 0.7389917021 0.5973449289
2643000000 0.7401245956 0.5962280314
2644000000 0.741250849 0.595125215
2645000000 0.7423724095 0.5940362265
2646000000 0.7434911701 0.592960569
2647000000 0.7446089386 0.5918975106
2648000000 0.7457274083 0.590846099
2649000000 0.7468481315 0.5898051779
2650000000 0.7479724943 0.5887734076
2651000000 0.7491016955 0.5877492883
2652000000 0.7502367281 0.5867311862
2653000000 0.7513783645 0.585717361
2654000000 0.7525271453 0.5847059955
2655000000 0.7536833727 0.5836952262
2656000000 0.7548471072 0.5826831745
2657000000 0.7560181687 0.5816679772
2658000000 0.7571961412 0.5806478179
2659000000 0.7583803825 0.5796209556
2660000000 0.7595700361 0.5785857534
2661000000 0.7607640476 0.5775407041
2662000000 0.761961184 0.5764844539
2663000000 0.763160056 0.575415823
2664000000 0.7643591419 0.5743338234
2665000000 0.7655568148 0.5732376729
2666000000 0.76675137 0.5721268057
2667000000 0.7679410543 0.5710008792
2668000000 0.7691240953 0.5698597765
2669000000 0.770298731 0.5687036059
2670000000 0.7714632385 0.5675326957
2671000000 0.7726159622 0.5663475855
2672000000 0.7737553396 0.5651490142
2673000000 0.7748799264 0.5639379042
2674000000 0.7759884179 0.5627153433
2675000000 0.7770796684 0.5614825632
2676000000 0.7781527075 0.5602409162
2677000000 0.7792067531 0.5589918498
2678000000 0.7802412199 0.5577368802
2679000000 0.7812557258 0.5564775646
2680000000 0.7822500934 0.5552154735
2681000000 0.7832243479 0.5539521627
2682000000 0.7841787115 0.5526891463
2683000000 0.7851135942 0.5514278706
2684000000 0.786029581 0.5501696898
2685000000 0.786927416 0.5489158432
2686000000 0.7878079839 0.5476674358
2687000000 0.7886722885 0.5464254206
2688000000 0.7895214294 0.5451905849
2689000000 0.7903565771 0.5439635395
2690000000 0.7911789471 0.5427447111
2691000000 0.7919897723 0.5415343397
2692000000 0.7927902764 0.540332478
2693000000 0.7935816469 0.5391389958
2694000000 0.7943650094 0.5379535878
2695000000 0.7951414022 0.5367757843
2696000000 0.7959117539 0.5356049665
2697000000 0.7966768623 0.5344403833
2698000000 0.7974373766 0.5332811723
2699000000 0.7981937814 0.5321263821
2700000000 0.7989463854 0.5309749975
