! PRELIMINARY bare PCB unless shell_eps > 0; see README.md
! L220 output ($1N324); all Gerber copper, components omitted (C216/L220/C217 not populated)
# Hz S RI R 50
2200000000 -0.2370469566 0.5851613241
2201000000 -0.2329147862 0.589709275
2202000000 -0.2287591158 0.5941943395
2203000000 -0.2245810086 0.5986166699
2204000000 -0.2203815162 0.6029764372
2205000000 -0.216161678 0.6072738312
2206000000 -0.2119225208 0.6115090594
2207000000 -0.2076650589 0.6156823476
2208000000 -0.203390293 0.6197939383
2209000000 -0.1990992109 0.6238440912
2210000000 -0.1947927864 0.6278330823
2211000000 -0.1904719796 0.6317612034
2212000000 -0.1861377361 0.6356287618
2213000000 -0.1817909873 0.63943608
2214000000 -0.1774326499 0.6431834949
2215000000 -0.1730636257 0.6468713575
2216000000 -0.1686848014 0.6505000326
2217000000 -0.1642970485 0.654069898
2218000000 -0.1599012231 0.6575813442
2219000000 -0.1554981656 0.6610347742
2220000000 -0.1510887008 0.6644306023
2221000000 -0.1466736375 0.6677692546
2222000000 -0.1422537687 0.6710511677
2223000000 -0.1378298713 0.6742767888
2224000000 -0.1334027058 0.6774465747
2225000000 -0.1289730166 0.680560992
2226000000 -0.1245415319 0.6836205161
2227000000 -0.1201089634 0.6866256307
2228000000 -0.1156760063 0.689576828
2229000000 -0.1112433396 0.6924746073
2230000000 -0.1068116254 0.6953194755
2231000000 -0.1023815099 0.6981119459
2232000000 -0.09795362236 0.700852538
2233000000 -0.09352857586 0.7035417773
2234000000 -0.08910696697 0.7061801945
2235000000 -0.0846893759 0.7087683254
2236000000 -0.08027636655 0.71130671
2237000000 -0.07586848655 0.7137958926
2238000000 -0.07146626734 0.7162364211
2239000000 -0.06707022427 0.7186288465
2240000000 -0.06268085668 0.7209737229
2241000000 -0.05829864799 0.7232716064
2242000000 -0.05392406585 0.7255230556
2243000000 -0.04955756224 0.7277286302
2244000000 -0.0451995736 0.7298888917
2245000000 -0.04085052098 0.7320044019
2246000000 -0.03651081019 0.7340757237
2247000000 -0.03218083195 0.7361034195
2248000000 -0.02786096208 0.738088052
2249000000 -0.02355156163 0.7400301831
2250000000 -0.01925297712 0.7419303738
2251000000 -0.01496554069 0.7437891839
2252000000 -0.01068957031 0.7456071715
2253000000 -0.006425369971 0.7473848932
2254000000 -0.002173229924 0.7491229029
2255000000 0.002066573131 0.7508217524
2256000000 0.00629377581 0.7524819906
2257000000 0.01050812782 0.7541041633
2258000000 0.01470939172 0.755688813
2259000000 0.0188973427 0.7572364788
2260000000 0.0230717683 0.7587476956
2261000000 0.02723246821 0.7602229945
2262000000 0.03137925398 0.7616629022
2263000000 0.03551194877 0.7630679407
2264000000 0.03963038713 0.7644386276
2265000000 0.04373441468 0.7657754751
2266000000 0.04782388786 0.7670789905
2267000000 0.0518986737 0.7683496756
2268000000 0.05595864949 0.7695880267
2269000000 0.06000370255 0.7707945345
2270000000 0.06403372994 0.7719696836
2271000000 0.06804863818 0.7731139528
2272000000 0.07204834298 0.7742278145
2273000000 0.07603276896 0.775311735
2274000000 0.08000184934 0.7763661741
2275000000 0.08395552573 0.7773915849
2276000000 0.08789374776 0.7783884142
2277000000 0.09181647287 0.7793571016
2278000000 0.09572366602 0.7802980802
2279000000 0.09961529935 0.7812117761
2280000000 0.103491352 0.7820986083
2281000000 0.1073518097 0.7829589889
2282000000 0.1111966647 0.7837933228
2283000000 0.1150259152 0.7846020077
2284000000 0.1188395654 0.7853854343
2285000000 0.122637625 0.7861439859
2286000000 0.126420109 0.7868780387
2287000000 0.1301870375 0.7875879614
2288000000 0.1339384352 0.7882741156
2289000000 0.1376743316 0.7889368559
2290000000 0.1413947602 0.7895765291
2291000000 0.1450997587 0.7901934753
2292000000 0.1487893683 0.790788027
2293000000 0.152463634 0.7913605098
2294000000 0.1561226038 0.791911242
2295000000 0.159766329 0.7924405348
2296000000 0.1633948634 0.7929486925
2297000000 0.1670082635 0.7934360123
2298000000 0.1706065882 0.7939027846
2299000000 0.1741898984 0.7943492927
2300000000 0.177758257 0.7947758134
2301000000 0.1813117283 0.7951826166
2302000000 0.1848503785 0.7955699657
2303000000 0.1883742747 0.7959381176
2304000000 0.1918834853 0.7962873227
2305000000 0.1953780795 0.7966178251
2306000000 0.1988581273 0.7969298627
2307000000 0.202323699 0.7972236673
2308000000 0.2057748655 0.7974994646
2309000000 0.2092116977 0.7977574746
2310000000 0.2126342667 0.7979979114
2311000000 0.2160426431 0.7982209834
2312000000 0.2194368976 0.7984268938
2313000000 0.2228171004 0.7986158402
2314000000 0.2261833208 0.7987880149
2315000000 0.2295356278 0.7989436053
2316000000 0.2328740893 0.7990827935
2317000000 0.2361987723 0.7992057573
2318000000 0.2395097428 0.7993126692
2319000000 0.2428070656 0.7994036977
2320000000 0.2460908041 0.7994790065
2321000000 0.2493610205 0.7995387553
2322000000 0.2526177753 0.7995830996
2323000000 0.2558611277 0.799612191
2324000000 0.2590911351 0.7996261773
2325000000 0.2623078533 0.7996252026
2326000000 0.2655113361 0.7996094074
2327000000 0.2687016357 0.7995789291
2328000000 0.2718788023 0.7995339018
2329000000 0.2750428843 0.7994744564
2330000000 0.278193928 0.7994007211
2331000000 0.2813319775 0.7993128213
2332000000 0.2844570753 0.7992108798
2333000000 0.2875692614 0.7990950169
2334000000 0.2906685738 0.7989653505
2335000000 0.2937550487 0.7988219966
2336000000 0.2968287196 0.7986650691
2337000000 0.2998896185 0.7984946798
2338000000 0.3029377747 0.7983109391
2339000000 0.3059732157 0.7981139555
2340000000 0.3089959669 0.7979038363
2341000000 0.3120060514 0.7976806873
2342000000 0.3150034904 0.7974446131
2343000000 0.3179883029 0.7971957175
2344000000 0.3209605059 0.7969341029
2345000000 0.3239201145 0.7966598713
2346000000 0.3268671416 0.7963731239
2347000000 0.3298015985 0.7960739611
2348000000 0.3327234943 0.7957624832
2349000000 0.3356328365 0.7954387898
2350000000 0.3385296306 0.7951029805
2351000000 0.3414138806 0.7947551548
2352000000 0.3442855887 0.7943954119
2353000000 0.3471447554 0.7940238513
2354000000 0.3499913799 0.7936405726
2355000000 0.3528254596 0.7932456755
2356000000 0.3556469908 0.7928392604
2357000000 0.3584559682 0.7924214277
2358000000 0.3612523855 0.7919922785
2359000000 0.3640362348 0.7915519145
2360000000 0.3668075075 0.7911004381
2361000000 0.3695661939 0.7906379521
2362000000 0.372312283 0.7901645605
2363000000 0.3750457633 0.7896803679
2364000000 0.3777666225 0.7891854798
2365000000 0.3804748474 0.7886800026
2366000000 0.3831704243 0.7881640439
2367000000 0.3858533389 0.7876377121
2368000000 0.3885235767 0.7871011167
2369000000 0.3911811226 0.7865543686
2370000000 0.3938259613 0.7859975794
2371000000 0.3964580774 0.7854308622
2372000000 0.3990774555 0.7848543311
2373000000 0.40168408 0.7842681015
2374000000 0.4042779355 0.7836722899
2375000000 0.406859007 0.7830670143
2376000000 0.4094272796 0.7824523937
2377000000 0.4119827386 0.7818285483
2378000000 0.4145253702 0.7811955998
2379000000 0.4170551608 0.7805536709
2380000000 0.4195720976 0.7799028856
2381000000 0.4220761686 0.7792433691
2382000000 0.4245673623 0.7785752479
2383000000 0.4270456685 0.7778986496
2384000000 0.4295110777 0.7772137028
2385000000 0.4319635815 0.7765205376
2386000000 0.4344031729 0.775819285
2387000000 0.4368298457 0.7751100769
2388000000 0.4392435954 0.7743930464
2389000000 0.4416444185 0.7736683278
2390000000 0.4440323133 0.772936056
2391000000 0.4464072793 0.772196367
2392000000 0.4487693177 0.7714493976
2393000000 0.4511184313 0.7706952854
2394000000 0.4534546248 0.7699341689
2395000000 0.4557779045 0.7691661871
2396000000 0.4580882783 0.7683914798
2397000000 0.4603857565 0.7676101874
2398000000 0.4626703509 0.7668224506
2399000000 0.4649420753 0.7660284107
2400000000 0.4672009459 0.7652282097
2401000000 0.4694469804 0.7644219893
2402000000 0.4716801992 0.7636098921
2403000000 0.4739006243 0.7627920604
2404000000 0.4761082804 0.761968637
2405000000 0.4783031939 0.7611397644
2406000000 0.4804853939 0.7603055853
2407000000 0.4826549114 0.7594662422
2408000000 0.48481178 0.7586218775
2409000000 0.4869560353 0.7577726333
2410000000 0.4890877155 0.7569186513
2411000000 0.491206861 0.7560600729
2412000000 0.4933135145 0.7551970388
2413000000 0.4954077212 0.7543296895
2414000000 0.4974895285 0.7534581644
2415000000 0.4995589864 0.7525826025
2416000000 0.5016161469 0.7517031419
2417000000 0.5036610647 0.7508199197
2418000000 0.5056937966 0.7499330721
2419000000 0.5077144018 0.7490427343
2420000000 0.5097229418 0.7481490403
2421000000 0.5117194806 0.7472521229
2422000000 0.513704084 0.7463521137
2423000000 0.5156768206 0.7454491429
2424000000 0.5176377608 0.7445433391
2425000000 0.5195869774 0.7436348296
2426000000 0.5215245452 0.7427237401
2427000000 0.5234505414 0.7418101945
2428000000 0.525365045 0.7408943151
2429000000 0.5272681372 0.7399762224
2430000000 0.5291599012 0.7390560349
2431000000 0.5310404219 0.7381338693
2432000000 0.5329097865 0.7372098403
2433000000 0.5347680837 0.7362840606
2434000000 0.5366154042 0.7353566405
2435000000 0.5384518405 0.7344276885
2436000000 0.5402774865 0.7334973105
2437000000 0.542092438 0.7325656105
2438000000 0.5438967922 0.7316326898
2439000000 0.5456906479 0.7306986475
2440000000 0.5474741053 0.7297635802
2441000000 0.5492472658 0.7288275821
2442000000 0.5510102324 0.7278907447
2443000000 0.552763109 0.726953157
2444000000 0.554506001 0.7260149056
2445000000 0.5562390145 0.7250760741
2446000000 0.5579622569 0.7241367436
2447000000 0.5596758363 0.7231969926
2448000000 0.5613798618 0.7222568966
2449000000 0.5630744433 0.7213165285
2450000000 0.5647596911 0.7203759585
2451000000 0.5664357165 0.7194352538
2452000000 0.5681026311 0.7184944789
2453000000 0.5697605469 0.7175536954
2454000000 0.5714095764 0.7166129622
2455000000 0.5730498323 0.715672335
2456000000 0.5746814276 0.714731867
2457000000 0.5763044752 0.7137916084
2458000000 0.5779190883 0.7128516066
2459000000 0.5795253799 0.7119119059
2460000000 0.5811234628 0.710972548
2461000000 0.5827134498 0.7100335718
2462000000 0.5842954531 0.709095013
2463000000 0.5858695849 0.7081569049
2464000000 0.5874359565 0.7072192777
2465000000 0.5889946791 0.706282159
2466000000 0.5905458629 0.7053455736
2467000000 0.5920896177 0.7044095434
2468000000 0.5936260523 0.7034740878
2469000000 0.5951552747 0.7025392234
2470000000 0.596677392 0.7016049642
2471000000 0.5981925104 0.7006713217
2472000000 0.5997007348 0.6997383045
2473000000 0.6012021691 0.6988059191
2474000000 0.6026969159 0.6978741691
2475000000 0.6041850765 0.6969430561
2476000000 0.6056667509 0.6960125788
2477000000 0.6071420377 0.6950827339
2478000000 0.6086110338 0.6941535158
2479000000 0.6100738349 0.6932249164
2480000000 0.6115305348 0.6922969258
2481000000 0.6129812256 0.6913695316
2482000000 0.6144259979 0.6904427196
2483000000 0.6158649403 0.6895164735
2484000000 0.6172981397 0.688590775
2485000000 0.6187256811 0.687665604
2486000000 0.6201476475 0.6867409385
2487000000 0.6215641199 0.685816755
2488000000 0.6229751774 0.684893028
2489000000 0.6243808969 0.6839697306
2490000000 0.6257813533 0.6830468344
2491000000 0.6271766192 0.6821243093
2492000000 0.6285667653 0.6812021242
2493000000 0.6299518598 0.6802802463
2494000000 0.6313319688 0.6793586418
2495000000 0.6327071563 0.6784372758
2496000000 0.6340774837 0.6775161121
2497000000 0.6354430103 0.6765951137
2498000000 0.636803793 0.6756742425
2499000000 0.6381598865 0.6747534598
2500000000 0.639511343 0.6738327258
2501000000 0.6408582123 0.6729120005
2502000000 0.6422005421 0.6719912428
2503000000 0.6435383774 0.6710704113
2504000000 0.6448717611 0.6701494643
2505000000 0.6462007335 0.6692283595
2506000000 0.6475253328 0.6683070544
2507000000 0.6488455945 0.6673855064
2508000000 0.6501615521 0.6664636725
2509000000 0.6514732364 0.66554151
2510000000 0.6527806763 0.664618976
2511000000 0.654083898 0.6636960278
2512000000 0.6553829256 0.6627726228
2513000000 0.6566777808 0.6618487187
2514000000 0.6579684833 0.6609242737
2515000000 0.6592550504 0.6599992461
2516000000 0.6605374972 0.6590735949
2517000000 0.6618158366 0.6581472795
2518000000 0.6630900796 0.6572202602
2519000000 0.6643602348 0.6562924976
2520000000 0.665626309 0.6553639533
2521000000 0.666888307 0.6544345897
2522000000 0.6681462313 0.65350437
2523000000 0.6694000829 0.6525732585
2524000000 0.6706498606 0.6516412203
2525000000 0.6718955616 0.6507082217
2526000000 0.6731371812 0.6497742302
2527000000 0.6743747128 0.6488392142
2528000000 0.6756081486 0.6479031437
2529000000 0.6768374787 0.6469659897
2530000000 0.6780626918 0.6460277246
2531000000 0.6792837753 0.6450883223
2532000000 0.6805007148 0.6441477579
2533000000 0.6817134948 0.6432060083
2534000000 0.6829220984 0.6422630515
2535000000 0.6841265073 0.6413188674
2536000000 0.6853267022 0.6403734372
2537000000 0.6865226625 0.6394267441
2538000000 0.6877143668 0.6384787725
2539000000 0.6889017924 0.6375295087
2540000000 0.6900849159 0.6365789408
2541000000 0.6912637129 0.6356270585
2542000000 0.6924381583 0.6346738532
2543000000 0.6936082262 0.6337193181
2544000000 0.6947738902 0.6327634483
2545000000 0.6959351232 0.6318062407
2546000000 0.6970918976 0.6308476937
2547000000 0.6982441855 0.629887808
2548000000 0.6993919584 0.6289265857
2549000000 0.7005351877 0.6279640311
2550000000 0.7016738446 0.6270001499
2551000000 0.7028079001 0.6260349501
2552000000 0.7039373249 0.6250684412
2553000000 0.7050620902 0.6241006346
2554000000 0.7061821667 0.6231315437
2555000000 0.7072975257 0.6221611833
2556000000 0.7084081384 0.6211895705
2557000000 0.7095139765 0.6202167237
2558000000 0.7106150118 0.6192426635
2559000000 0.7117112166 0.6182674118
2560000000 0.7128025639 0.6172909925
2561000000 0.7138890269 0.6163134312
2562000000 0.7149705795 0.615334755
2563000000 0.7160471964 0.6143549927
2564000000 0.7171188529 0.6133741748
2565000000 0.7181855251 0.6123923332
2566000000 0.71924719 0.6114095015
2567000000 0.7203038255 0.6104257148
2568000000 0.7213554104 0.6094410093
2569000000 0.7224019246 0.6084554232
2570000000 0.7234433489 0.6074689957
2571000000 0.7244796653 0.6064817673
2572000000 0.7255108572 0.6054937799
2573000000 0.7265369088 0.6045050768
2574000000 0.7275578059 0.6035157021
2575000000 0.7285735355 0.6025257013
2576000000 0.7295840858 0.601535121
2577000000 0.7305894466 0.6005440088
2578000000 0.731589609 0.599552413
2579000000 0.7325845656 0.5985603833
2580000000 0.7335743106 0.5975679699
2581000000 0.7345588394 0.5965752238
2582000000 0.7355381494 0.5955821971
2583000000 0.7365122393 0.5945889421
2584000000 0.7374811094 0.593595512
2585000000 0.7384447618 0.5926019606
2586000000 0.7394032 0.591608342
2587000000 0.7403564296 0.5906147108
2588000000 0.7413044574 0.5896211221
2589000000 0.7422472921 0.5886276312
2590000000 0.7431849443 0.5876342936
2591000000 0.744117426 0.586641165
2592000000 0.7450447512 0.5856483013
2593000000 0.7459669354 0.5846557582
2594000000 0.746883996 0.5836635918
2595000000 0.7477959521 0.5826718576
2596000000 0.7487028245 0.5816806113
2597000000 0.7496046357 0.5806899083
2598000000 0.7505014101 0.5796998037
2599000000 0.7513931735 0.5787103523
2600000000 0.7522799537 0.5777216084
2601000000 0.7531617799 0.5767336258
2602000000 0.7540386833 0.575746458
2603000000 0.7549106965 0.5747601576
2604000000 0.7557778537 0.5737747768
2605000000 0.756640191 0.5727903669
2606000000 0.7574977457 0.5718069785
2607000000 0.7583505569 0.5708246614
2608000000 0.7591986652 0.5698434644
2609000000 0.7600421126 0.5688634354
2610000000 0.7608809427 0.5678846213
2611000000 0.7617152003 0.566907068
2612000000 0.7625449319 0.5659308202
2613000000 0.763370185 0.5649559215
2614000000 0.7641910087 0.5639824143
2615000000 0.7650074532 0.5630103396
2616000000 0.7658195699 0.5620397373
2617000000 0.7666274116 0.5610706458
2618000000 0.767431032 0.5601031021
2619000000 0.768230486 0.559137142
2620000000 0.7690258294 0.5581727995
2621000000 0.7698171191 0.5572101074
2622000000 0.7706044129 0.5562490966
2623000000 0.7713877695 0.5552897967
2624000000 0.7721672484 0.5543322356
2625000000 0.7729429098 0.5533764395
2626000000 0.7737148146 0.5524224331
2627000000 0.7744830245 0.5514702393
2628000000 0.7752476017 0.5505198791
2629000000 0.7760086088 0.5495713721
2630000000 0.7767661091 0.5486247359
2631000000 0.7775201661 0.5476799865
2632000000 0.7782708438 0.5467371378
2633000000 0.7790182064 0.5457962022
2634000000 0.7797623183 0.5448571901
2635000000 0.7805032442 0.5439201103
2636000000 0.7812410488 0.5429849695
2637000000 0.7819757967 0.5420517727
2638000000 0.7827075526 0.5411205231
2639000000 0.7834363813 0.540191222
2640000000 0.7841623471 0.5392638688
2641000000 0.7848855142 0.5383384612
2642000000 0.7856059465 0.5374149951
2643000000 0.7863237078 0.5364934644
2644000000 0.7870388612 0.5355738614
2645000000 0.7877514693 0.5346561764
2646000000 0.7884615944 0.5337403983
2647000000 0.7891692981 0.5328265137
2648000000 0.7898746413 0.5319145081
2649000000 0.7905776842 0.5310043647
2650000000 0.7912784864 0.5300960655
2651000000 0.7919771064 0.5291895904
2652000000 0.7926736021 0.5282849181
2653000000 0.7933680302 0.5273820255
2654000000 0.7940604466 0.5264808878
2655000000 0.794750906 0.5255814789
2656000000 0.7954394623 0.5246837711
2657000000 0.7961261678 0.5237877352
2658000000 0.796811074 0.5228933407
2659000000 0.797494231 0.5220005556
2660000000 0.7981756876 0.5211093467
2661000000 0.7988554913 0.5202196795
2662000000 0.7995336881 0.519331518
2663000000 0.8002103228 0.5184448254
2664000000 0.8008854387 0.5175595635
2665000000 0.8015590774 0.516675693
2666000000 0.8022312791 0.5157931737
2667000000 0.8029020826 0.5149119644
2668000000 0.8035715249 0.5140320228
2669000000 0.8042396413 0.5131533059
2670000000 0.8049064657 0.5122757698
2671000000 0.8055720301 0.5113993698
2672000000 0.8062363649 0.5105240606
2673000000 0.8068994987 0.5096497961
2674000000 0.8075614586 0.5087765299
2675000000 0.8082222694 0.5079042146
2676000000 0.8088819548 0.5070328028
2677000000 0.809540536 0.5061622465
2678000000 0.8101980331 0.5052924973
2679000000 0.8108544637 0.5044235066
2680000000 0.8115098441 0.5035552257
2681000000 0.8121641886 0.5026876054
2682000000 0.8128175095 0.5018205968
2683000000 0.8134698174 0.5009541508
2684000000 0.8141211212 0.5000882183
2685000000 0.8147714278 0.4992227503
2686000000 0.8154207424 0.498357698
2687000000 0.8160690681 0.4974930129
2688000000 0.8167164066 0.4966286467
2689000000 0.8173627576 0.4957645515
2690000000 0.818008119 0.4949006797
2691000000 0.818652487 0.4940369843
2692000000 0.8192958561 0.4931734188
2693000000 0.819938219 0.4923099373
2694000000 0.8205795668 0.4914464944
2695000000 0.8212198888 0.4905830457
2696000000 0.8218591728 0.4897195473
2697000000 0.8224974048 0.4888559562
2698000000 0.8231345695 0.4879922305
2699000000 0.8237706498 0.4871283288
2700000000 0.8244056273 0.486264211
