! PRELIMINARY bare PCB unless shell_eps > 0; see README.md
! L220 output ($1N324); all Gerber copper, components omitted (C216/L220/C217 not populated)
# Hz S RI R 50
2200000000 -0.1656549258 -0.4649276004
2201000000 -0.1712309882 -0.46146679
2202000000 -0.1767803041 -0.4579494784
2203000000 -0.1823021524 -0.4543759263
2204000000 -0.1877958154 -0.4507464056
2205000000 -0.1932605791 -0.4470611987
2206000000 -0.198695733 -0.4433205993
2207000000 -0.2041005703 -0.4395249114
2208000000 -0.2094743887 -0.4356744499
2209000000 -0.2148164897 -0.4317695404
2210000000 -0.2201261795 -0.4278105189
2211000000 -0.2254027686 -0.423797732
2212000000 -0.2306455727 -0.4197315366
2213000000 -0.2358539119 -0.4156123001
2214000000 -0.2410271119 -0.4114404
2215000000 -0.2461645034 -0.407216224
2216000000 -0.2512654227 -0.4029401699
2217000000 -0.2563292115 -0.3986126455
2218000000 -0.2613552176 -0.3942340684
2219000000 -0.2663427945 -0.3898048661
2220000000 -0.271291302 -0.3853254758
2221000000 -0.276200106 -0.3807963441
2222000000 -0.281068579 -0.3762179273
2223000000 -0.2858961 -0.371590691
2224000000 -0.2906820548 -0.36691511
2225000000 -0.295425836 -0.3621916683
2226000000 -0.3001268435 -0.3574208589
2227000000 -0.3047844842 -0.3526031839
2228000000 -0.3093981722 -0.3477391538
2229000000 -0.3139673296 -0.3428292882
2230000000 -0.3184913856 -0.3378741149
2231000000 -0.3229697775 -0.3328741701
2232000000 -0.3274019503 -0.3278299987
2233000000 -0.3317873573 -0.3227421532
2234000000 -0.3361254598 -0.3176111944
2235000000 -0.3404157275 -0.3124376909
2236000000 -0.3446576384 -0.307222219
2237000000 -0.3488506792 -0.3019653627
2238000000 -0.3529943452 -0.2966677132
2239000000 -0.3570881407 -0.2913298692
2240000000 -0.3611315785 -0.2859524363
2241000000 -0.3651241809 -0.2805360273
2242000000 -0.369065479 -0.2750812618
2243000000 -0.3729550133 -0.269588766
2244000000 -0.3767923337 -0.2640591725
2245000000 -0.3805769995 -0.2584931205
2246000000 -0.3843085795 -0.2528912552
2247000000 -0.3879866522 -0.247254228
2248000000 -0.3916108059 -0.241582696
2249000000 -0.3951806387 -0.2358773221
2250000000 -0.3986957585 -0.2301387747
2251000000 -0.4021557833 -0.2243677275
2252000000 -0.4055603413 -0.2185648596
2253000000 -0.4089090708 -0.2127308548
2254000000 -0.4122016202 -0.2068664021
2255000000 -0.4154376484 -0.2009721949
2256000000 -0.4186168245 -0.1950489313
2257000000 -0.4217388282 -0.1890973136
2258000000 -0.4248033496 -0.1831180483
2259000000 -0.4278100895 -0.1771118458
2260000000 -0.4307587591 -0.1710794205
2261000000 -0.4336490805 -0.1650214902
2262000000 -0.4364807865 -0.1589387762
2263000000 -0.4392536204 -0.1528320031
2264000000 -0.4419673366 -0.1467018985
2265000000 -0.4446217002 -0.140549193
2266000000 -0.4472164874 -0.1343746198
2267000000 -0.4497514849 -0.1281789146
2268000000 -0.4522264907 -0.1219628156
2269000000 -0.4546413138 -0.1157270631
2270000000 -0.4569957738 -0.1094723993
2271000000 -0.4592897018 -0.1031995682
2272000000 -0.4615229395 -0.0969093155
2273000000 -0.4636953401 -0.0906023883
2274000000 -0.4658067673 -0.08427953491
2275000000 -0.4678570964 -0.07794150469
2276000000 -0.4698462133 -0.07158904792
2277000000 -0.4717740154 -0.06522291553
2278000000 -0.4736404107 -0.05884385898
2279000000 -0.4754453186 -0.05245263005
2280000000 -0.4771886694 -0.04604998065
2281000000 -0.4788704043 -0.03963666269
2282000000 -0.4804904759 -0.03321342781
2283000000 -0.4820488474 -0.02678102728
2284000000 -0.483545493 -0.02034021178
2285000000 -0.4849803981 -0.01389173123
2286000000 -0.4863535587 -0.007436334615
2287000000 -0.487664982 -0.000974769787
2288000000 -0.4889146857 0.005492216685
2289000000 -0.4901026985 0.0119638797
2290000000 -0.4912290598 0.01843947583
2291000000 -0.4922938198 0.02491826342
2292000000 -0.4932970393 0.03139950286
2293000000 -0.4942387897 0.03788245667
2294000000 -0.495119153 0.04436638973
2295000000 -0.4959382216 0.05085056941
2296000000 -0.4966960986 0.05733426577
2297000000 -0.4973928971 0.06381675169
2298000000 -0.4980287409 0.07029730308
2299000000 -0.4986037638 0.07677519902
2300000000 -0.4991181098 0.08324972191
2301000000 -0.4995719332 0.08972015765
2302000000 -0.4999653981 0.09618579579
2303000000 -0.5002986786 0.1026459297
2304000000 -0.5005719587 0.1090998567
2305000000 -0.5007854322 0.1155468783
2306000000 -0.5009393026 0.1219863002
2307000000 -0.5010337828 0.1284174326
2308000000 -0.5010690956 0.1348395901
2309000000 -0.5010454728 0.1412520923
2310000000 -0.5009631558 0.1476542635
2311000000 -0.5008223951 0.154045433
2312000000 -0.5006234503 0.1604249352
2313000000 -0.50036659 0.1667921099
2314000000 -0.5000520919 0.1731463024
2315000000 -0.4996802423 0.1794868633
2316000000 -0.4992513362 0.1858131492
2317000000 -0.4987656771 0.1921245222
2318000000 -0.4982235773 0.1984203506
2319000000 -0.4976253569 0.2047000086
2320000000 -0.4969713447 0.2109628768
2321000000 -0.4962618774 0.2172083419
2322000000 -0.4954972996 0.2234357971
2323000000 -0.4946779639 0.2296446422
2324000000 -0.4938042305 0.2358342838
2325000000 -0.4928764673 0.2420041349
2326000000 -0.4918950496 0.2481536156
2327000000 -0.4908603601 0.2542821532
2328000000 -0.4897727885 0.2603891817
2329000000 -0.4886327318 0.2664741425
2330000000 -0.4874405939 0.2725364842
2331000000 -0.4861967852 0.278575663
2332000000 -0.4849017233 0.2845911423
2333000000 -0.4835558317 0.2905823931
2334000000 -0.4821595406 0.2965488943
2335000000 -0.4807132866 0.3024901323
2336000000 -0.4792175118 0.3084056014
2337000000 -0.4776726649 0.3142948037
2338000000 -0.4760791999 0.3201572495
2339000000 -0.4744375767 0.3259924568
2340000000 -0.4727482606 0.3317999521
2341000000 -0.4710117222 0.3375792699
2342000000 -0.4692284373 0.3433299527
2343000000 -0.467398887 0.3490515518
2344000000 -0.4655235569 0.3547436266
2345000000 -0.4636029377 0.3604057448
2346000000 -0.4616375243 0.3660374829
2347000000 -0.4596278163 0.3716384255
2348000000 -0.4575743176 0.3772081663
2349000000 -0.455477536 0.3827463072
2350000000 -0.4533379836 0.3882524588
2351000000 -0.451156176 0.3937262407
2352000000 -0.4489326326 0.3991672809
2353000000 -0.4466678763 0.4045752163
2354000000 -0.4443624334 0.4099496927
2355000000 -0.4420168332 0.4152903645
2356000000 -0.4396316083 0.4205968951
2357000000 -0.4372072939 0.4258689568
2358000000 -0.4347444283 0.4311062307
2359000000 -0.4322435519 0.4363084067
2360000000 -0.4297052079 0.4414751839
2361000000 -0.4271299415 0.4466062702
2362000000 -0.4245183002 0.4517013822
2363000000 -0.4218708334 0.4567602459
2364000000 -0.4191880921 0.4617825958
2365000000 -0.4164706293 0.4667681755
2366000000 -0.4137189991 0.4717167378
2367000000 -0.4109337572 0.4766280439
2368000000 -0.4081154604 0.4815018644
2369000000 -0.4052646665 0.4863379784
2370000000 -0.4023819343 0.4911361744
2371000000 -0.399467823 0.4958962492
2372000000 -0.3965228929 0.5006180089
2373000000 -0.3935477042 0.5053012681
2374000000 -0.3905428178 0.5099458505
2375000000 -0.3875087945 0.5145515883
2376000000 -0.384446195 0.5191183228
2377000000 -0.3813555802 0.5236459035
2378000000 -0.3782375104 0.5281341891
2379000000 -0.3750925455 0.5325830466
2380000000 -0.3719212449 0.5369923518
2381000000 -0.3687241673 0.5413619889
2382000000 -0.3655018703 0.5456918506
2383000000 -0.3622549109 0.5499818383
2384000000 -0.3589838446 0.5542318615
2385000000 -0.3556892257 0.5584418382
2386000000 -0.3523716073 0.5626116948
2387000000 -0.3490315407 0.5667413658
2388000000 -0.3456695756 0.5708307939
2389000000 -0.3422862601 0.57487993
2390000000 -0.3388821401 0.5788887331
2391000000 -0.3354577596 0.58285717
2392000000 -0.3320136603 0.5867852156
2393000000 -0.3285503818 0.5906728526
2394000000 -0.3250684611 0.5945200715
2395000000 -0.3215684326 0.5983268705
2396000000 -0.3180508283 0.6020932554
2397000000 -0.3145161773 0.6058192398
2398000000 -0.3109650056 0.6095048444
2399000000 -0.3073978365 0.6131500975
2400000000 -0.3038151901 0.6167550347
2401000000 -0.3002175832 0.6203196989
2402000000 -0.2966055293 0.6238441401
2403000000 -0.2929795386 0.6273284152
2404000000 -0.2893401175 0.6307725884
2405000000 -0.2856877691 0.6341767303
2406000000 -0.2820229924 0.6375409189
2407000000 -0.2783462829 0.6408652383
2408000000 -0.2746581319 0.6441497795
2409000000 -0.2709590269 0.64739464
2410000000 -0.2672494513 0.6505999237
2411000000 -0.2635298841 0.6537657406
2412000000 -0.2598008001 0.6568922071
2413000000 -0.2560626698 0.6599794457
2414000000 -0.2523159594 0.6630275847
2415000000 -0.2485611302 0.6660367586
2416000000 -0.2447986391 0.6690071075
2417000000 -0.2410289385 0.6719387771
2418000000 -0.2372524758 0.6748319187
2419000000 -0.2334696936 0.6776866893
2420000000 -0.2296810297 0.680503251
2421000000 -0.225886917 0.6832817713
2422000000 -0.2220877833 0.6860224226
2423000000 -0.2182840513 0.6887253827
2424000000 -0.2144761385 0.6913908339
2425000000 -0.2106644575 0.6940189637
2426000000 -0.2068494154 0.6966099639
2427000000 -0.203031414 0.6991640313
2428000000 -0.19921085 0.7016813666
2429000000 -0.1953881143 0.7041621755
2430000000 -0.1915635927 0.7066066674
2431000000 -0.1877376655 0.709015056
2432000000 -0.1839107073 0.7113875591
2433000000 -0.1800830872 0.7137243983
2434000000 -0.1762551689 0.7160257989
2435000000 -0.1724273101 0.7182919899
2436000000 -0.1685998633 0.720523204
2437000000 -0.1647731749 0.722719677
2438000000 -0.1609475858 0.7248816482
2439000000 -0.1571234312 0.7270093602
2440000000 -0.1533010403 0.7291030584
2441000000 -0.1494807369 0.7311629913
2442000000 -0.1456628387 0.7331894102
2443000000 -0.1418476576 0.7351825692
2444000000 -0.1380355 0.737142725
2445000000 -0.134226666 0.7390701366
2446000000 -0.1304214502 0.7409650656
2447000000 -0.1266201413 0.7428277758
2448000000 -0.122823022 0.7446585332
2449000000 -0.1190303693 0.7464576056
2450000000 -0.1152424543 0.748225263
2451000000 -0.1114595423 0.7499617771
2452000000 -0.1076818926 0.7516674213
2453000000 -0.1039097588 0.7533424705
2454000000 -0.1001433886 0.7549872013
2455000000 -0.0963830241 0.7566018914
2456000000 -0.09262890127 0.75818682
2457000000 -0.08888125048 0.7597422672
2458000000 -0.08514029629 0.7612685143
2459000000 -0.08140625752 0.7627658436
2460000000 -0.07767934724 0.764234538
2461000000 -0.07395977283 0.7656748814
2462000000 -0.07024773595 0.767087158
2463000000 -0.06654343265 0.7684716528
2464000000 -0.06284705333 0.7698286511
2465000000 -0.05915878277 0.7711584385
2466000000 -0.05547880022 0.7724613007
2467000000 -0.05180727937 0.7737375238
2468000000 -0.04814438843 0.7749873937
2469000000 -0.04449029014 0.7762111962
2470000000 -0.04084514182 0.7774092171
2471000000 -0.03720909541 0.7785817418
2472000000 -0.03358229751 0.7797290553
2473000000 -0.02996488944 0.7808514422
2474000000 -0.02635700724 0.7819491867
2475000000 -0.02275878177 0.7830225721
2476000000 -0.01917033873 0.7840718812
2477000000 -0.01559179871 0.7850973958
2478000000 -0.01202327726 0.786099397
2479000000 -0.0084648849 0.7870781648
2480000000 -0.00491672723 0.7880339781
2481000000 -0.001378904944 0.7889671149
2482000000 0.002148486098 0.7898778518
2483000000 0.005665354816 0.790766464
2484000000 0.009171614851 0.7916332256
2485000000 0.0126671845 0.7924784091
2486000000 0.01615198667 0.7933022854
2487000000 0.01962594879 0.7941051241
2488000000 0.02308900279 0.7948871929
2489000000 0.02654108496 0.7956487578
2490000000 0.029982136 0.7963900831
2491000000 0.03341210084 0.7971114312
2492000000 0.03683092863 0.7978130626
2493000000 0.04023857269 0.7984952358
2494000000 0.04363499038 0.7991582073
2495000000 0.04702014309 0.7998022315
2496000000 0.05039399614 0.8004275605
2497000000 0.05375651871 0.8010344445
2498000000 0.05710768378 0.8016231312
2499000000 0.06044746804 0.802193866
2500000000 0.06377585184 0.8027468921
2501000000 0.0670928191 0.8032824501
2502000000 0.07039835724 0.8038007784
2503000000 0.07369245711 0.8043021127
2504000000 0.0769751129 0.8047866861
2505000000 0.08024632209 0.8052547294
2506000000 0.08350608536 0.8057064706
2507000000 0.08675440651 0.806142135
2508000000 0.08999129238 0.8065619454
2509000000 0.09321675279 0.8069661217
2510000000 0.09643080047 0.8073548811
2511000000 0.09963345095 0.8077284382
2512000000 0.1028247225 0.8080870044
2513000000 0.1060046361 0.8084307887
2514000000 0.1091732152 0.8087599969
2515000000 0.1123304859 0.8090748321
2516000000 0.1154764766 0.8093754945
2517000000 0.1186112183 0.8096621812
2518000000 0.1217347439 0.8099350866
2519000000 0.1248470888 0.8101944019
2520000000 0.1279482904 0.8104403155
2521000000 0.1310383882 0.8106730128
2522000000 0.1341174237 0.8108926762
2523000000 0.1371854402 0.8110994849
2524000000 0.1402424829 0.8112936154
2525000000 0.1432885986 0.8114752409
2526000000 0.146323836 0.8116445318
2527000000 0.1493482452 0.8118016553
2528000000 0.1523618779 0.8119467758
2529000000 0.1553647873 0.8120800543
2530000000 0.1583570278 0.8122016491
2531000000 0.1613386553 0.8123117153
2532000000 0.1643097268 0.8124104051
2533000000 0.1672703005 0.8124978676
2534000000 0.1702204356 0.812574249
2535000000 0.1731601925 0.8126396924
2536000000 0.1760896323 0.8126943378
2537000000 0.1790088172 0.8127383226
2538000000 0.18191781 0.8127717809
2539000000 0.1848166744 0.8127948439
2540000000 0.1877054747 0.81280764
2541000000 0.1905842758 0.8128102946
2542000000 0.1934531432 0.8128029303
2543000000 0.1963121427 0.8127856667
2544000000 0.1991613408 0.8127586207
2545000000 0.202000804 0.8127219061
2546000000 0.2048305993 0.8126756342
2547000000 0.2076507939 0.8126199134
2548000000 0.2104614551 0.8125548493
2549000000 0.2132626505 0.8124805448
2550000000 0.2160544473 0.8123971002
2551000000 0.2188369133 0.8123046129
2552000000 0.2216101156 0.8122031779
2553000000 0.2243741217 0.8120928875
2554000000 0.2271289986 0.8119738315
2555000000 0.2298748132 0.8118460969
2556000000 0.2326116321 0.8117097685
2557000000 0.2353395216 0.8115649286
2558000000 0.2380585474 0.8114116568
2559000000 0.2407687751 0.8112500305
2560000000 0.2434702697 0.8110801248
2561000000 0.2461630955 0.8109020124
2562000000 0.2488473164 0.8107157636
2563000000 0.2515229956 0.8105214467
2564000000 0.2541901959 0.8103191276
2565000000 0.256848979 0.8101088701
2566000000 0.2594994061 0.8098907359
2567000000 0.2621415377 0.8096647848
2568000000 0.2647754332 0.8094310741
2569000000 0.2674011514 0.8091896596
2570000000 0.2700187502 0.808940595
2571000000 0.2726282863 0.8086839319
2572000000 0.2752298159 0.8084197204
2573000000 0.2778233938 0.8081480085
2574000000 0.2804090741 0.8078688425
2575000000 0.2829869096 0.8075822673
2576000000 0.2855569522 0.8072883256
2577000000 0.2881192526 0.8069870588
2578000000 0.2906738606 0.8066785069
2579000000 0.2932208244 0.806362708
2580000000 0.2957601916 0.8060396989
2581000000 0.2982920081 0.805709515
2582000000 0.300816319 0.8053721904
2583000000 0.3033331679 0.8050277576
2584000000 0.3058425972 0.804676248
2585000000 0.3083446482 0.8043176919
2586000000 0.3108393608 0.8039521182
2587000000 0.3133267736 0.8035795547
2588000000 0.3158069239 0.8032000282
2589000000 0.3182798477 0.8028135644
2590000000 0.3207455798 0.8024201881
2591000000 0.3232041535 0.802019923
2592000000 0.3256556008 0.8016127921
2593000000 0.3280999524 0.8011988175
2594000000 0.3305372378 0.8007780203
2595000000 0.3329674847 0.8003504212
2596000000 0.33539072 0.79991604
2597000000 0.3378069689 0.7994748959
2598000000 0.3402162553 0.7990270074
2599000000 0.3426186017 0.7985723927
2600000000 0.3450140296 0.7981110691
2601000000 0.3474025586 0.7976430537
2602000000 0.3497842074 0.7971683633
2603000000 0.3521589932 0.796687014
2604000000 0.3545269318 0.7961990219
2605000000 0.3568880378 0.7957044025
2606000000 0.3592423244 0.7952031712
2607000000 0.3615898037 0.7946953434
2608000000 0.3639304862 0.794180934
2609000000 0.3662643813 0.793659958
2610000000 0.3685914971 0.7931324304
2611000000 0.3709118406 0.7925983659
2612000000 0.3732254172 0.7920577795
2613000000 0.3755322314 0.7915106861
2614000000 0.3778322864 0.7909571006
2615000000 0.3801255841 0.7903970383
2616000000 0.3824121256 0.7898305145
2617000000 0.3846919103 0.7892575447
2618000000 0.3869649369 0.7886781446
2619000000 0.3892312029 0.7880923303
2620000000 0.3914907046 0.7875001182
2621000000 0.3937434374 0.7869015249
2622000000 0.3959893954 0.7862965675
2623000000 0.398228572 0.7856852636
2624000000 0.4004609595 0.785067631
2625000000 0.4026865491 0.7844436882
2626000000 0.4049053313 0.783813454
2627000000 0.4071172954 0.783176948
2628000000 0.4093224301 0.7825341901
2629000000 0.4115207231 0.7818852009
2630000000 0.4137121612 0.7812300016
2631000000 0.4158967307 0.7805686142
2632000000 0.4180744168 0.779901061
2633000000 0.4202452041 0.7792273653
2634000000 0.4224090766 0.778547551
2635000000 0.4245660174 0.7778616428
2636000000 0.4267160092 0.777169666
2637000000 0.4288590338 0.7764716468
2638000000 0.4309950728 0.7757676122
2639000000 0.4331241069 0.77505759
2640000000 0.4352461165 0.7743416087
2641000000 0.4373610815 0.7736196977
2642000000 0.4394689812 0.7728918875
2643000000 0.4415697947 0.7721582091
2644000000 0.4436635006 0.7714186947
2645000000 0.4457500771 0.770673377
2646000000 0.4478295023 0.7699222901
2647000000 0.4499017538 0.7691654686
2648000000 0.4519668092 0.7684029483
2649000000 0.4540246456 0.7676347658
2650000000 0.4560752402 0.7668609586
2651000000 0.45811857 0.7660815653
2652000000 0.4601546117 0.7652966253
2653000000 0.4621833422 0.7645061791
2654000000 0.4642047382 0.7637102679
2655000000 0.4662187766 0.7629089342
2656000000 0.4682254341 0.7621022213
2657000000 0.4702246876 0.7612901733
2658000000 0.4722165142 0.7604728356
2659000000 0.4742008909 0.7596502542
2660000000 0.4761777951 0.7588224763
2661000000 0.4781472044 0.75798955
2662000000 0.4801090965 0.7571515243
2663000000 0.4820634494 0.7563084491
2664000000 0.4840102416 0.7554603754
2665000000 0.4859494518 0.7546073549
2666000000 0.4878810591 0.7537494404
2667000000 0.4898050429 0.7528866855
2668000000 0.4917213834 0.7520191448
2669000000 0.4936300608 0.7511468736
2670000000 0.4955310562 0.7502699284
2671000000 0.4974243509 0.7493883662
2672000000 0.4993099272 0.7485022451
2673000000 0.5011877676 0.7476116238
2674000000 0.5030578553 0.7467165622
2675000000 0.5049201744 0.7458171205
2676000000 0.5067747094 0.7449133601
2677000000 0.5086214457 0.744005343
2678000000 0.5104603693 0.7430931319
2679000000 0.5122914671 0.7421767903
2680000000 0.5141147267 0.7412563825
2681000000 0.5159301366 0.7403319733
2682000000 0.517737686 0.7394036282
2683000000 0.5195373651 0.7384714136
2684000000 0.5213291649 0.7375353961
2685000000 0.5231130775 0.7365956433
2686000000 0.5248890957 0.7356522232
2687000000 0.5266572134 0.7347052043
2688000000 0.5284174254 0.7337546557
2689000000 0.5301697276 0.732800647
2690000000 0.5319141169 0.7318432482
2691000000 0.5336505911 0.7308825299
2692000000 0.5353791493 0.729918563
2693000000 0.5370997913 0.7289514189
2694000000 0.5388125185 0.7279811692
2695000000 0.5405173329 0.7270078861
2696000000 0.542214238 0.7260316417
2697000000 0.5439032382 0.7250525089
2698000000 0.5455843392 0.7240705604
2699000000 0.5472575477 0.7230858694
2700000000 0.5489228718 0.7220985091
