! PRELIMINARY bare PCB unless shell_eps > 0; see README.md
! L220 output ($1N324), with L220 and C216 excluded and C217 DNP
# Hz S RI R 50
2200000000 0.3848137127 -0.2543620545
2201000000 0.3819107437 -0.2531584446
2202000000 0.3790994471 -0.251855087
2203000000 0.3763911766 -0.2504577991
2204000000 0.3737969371 -0.2489735899
2205000000 0.3713272688 -0.2474106381
2206000000 0.3689921312 -0.2457782596
2207000000 0.3668007913 -0.2440868635
2208000000 0.3647617141 -0.242347898
2209000000 0.3628824582 -0.2405737847
2210000000 0.3611695774 -0.2387778443
2211000000 0.3596285285 -0.2369742115
2212000000 0.3582635862 -0.2351777416
2213000000 0.3570777671 -0.2334039091
2214000000 0.3560727625 -0.2316686979
2215000000 0.3552488805 -0.229988486
2216000000 0.3546049995 -0.2283799237
2217000000 0.3541385315 -0.2268598074
2218000000 0.353845398 -0.2254449493
2219000000 0.3537200169 -0.2241520451
2220000000 0.3537553013 -0.2229975393
2221000000 0.3539426712 -0.2219974906
2222000000 0.3542720771 -0.2211674375
2223000000 0.354732035 -0.2205222659
2224000000 0.3553096747 -0.2200760796
2225000000 0.3559907994 -0.2198420744
2226000000 0.3567599555 -0.2198324178
2227000000 0.3576005156 -0.2200581344
2228000000 0.3584947695 -0.2205289981
2229000000 0.3594240269 -0.2212534328
2230000000 0.3603687272 -0.2222384222
2231000000 0.3613085594 -0.2234894282
2232000000 0.3622225877 -0.2250103207
2233000000 0.3630893841 -0.2268033181
2234000000 0.3638871667 -0.2288689397
2235000000 0.3645939412 -0.2312059695
2236000000 0.3651876465 -0.2338114329
2237000000 0.3656463025 -0.2366805866
2238000000 0.3659481574 -0.2398069202
2239000000 0.3660718366 -0.2431821715
2240000000 0.3659964888 -0.2467963548
2241000000 0.3657019304 -0.2506378013
2242000000 0.3651687854 -0.2546932124
2243000000 0.3643786214 -0.2589477248
2244000000 0.363314079 -0.2633849877
2245000000 0.3619589952 -0.2679872502
2246000000 0.3602985175 -0.2727354599
2247000000 0.3583192113 -0.2776093711
2248000000 0.3560091558 -0.2825876612
2249000000 0.3533580307 -0.287648056
2250000000 0.3503571918 -0.2927674612
2251000000 0.3469997349 -0.2979221005
2252000000 0.3432805476 -0.3030876587
2253000000 0.3391963486 -0.3082394279
2254000000 0.3347457149 -0.3133524575
2255000000 0.3299290952 -0.3184017055
2256000000 0.3247488112 -0.3233621896
2257000000 0.3192090455 -0.3282091388
2258000000 0.3133158166 -0.3329181423
2259000000 0.3070769418 -0.3374652956
2260000000 0.3005019874 -0.3418273434
2261000000 0.2936022075 -0.3459818162
2262000000 0.286390471 -0.3499071615
2263000000 0.2788811787 -0.3535828681
2264000000 0.2710901696 -0.3569895825
2265000000 0.2630346185 -0.3601092154
2266000000 0.2547329253 -0.3629250408
2267000000 0.2462045964 -0.3654217827
2268000000 0.23747012 -0.3675856931
2269000000 0.228550836 -0.3694046169
2270000000 0.2194688005 -0.3708680466
2271000000 0.2102466483 -0.3719671647
2272000000 0.200907452 -0.3726948731
2273000000 0.19147458 -0.3730458118
2274000000 0.1819715552 -0.3730163644
2275000000 0.1724219132 -0.3726046512
2276000000 0.162849064 -0.3718105115
2277000000 0.1532761554 -0.3706354734
2278000000 0.1437259416 -0.3690827124
2279000000 0.1342206557 -0.3671569999
2280000000 0.1247818891 -0.3648646403
2281000000 0.1154304766 -0.3622134
2282000000 0.1061863901 -0.3592124261
2283000000 0.09706863941 -0.3558721578
2284000000 0.08809518291 -0.3522042302
2285000000 0.07928284678 -0.3482213719
2286000000 0.07064725461 -0.3439372967
2287000000 0.06220276702 -0.3393665909
2288000000 0.05396243185 -0.3345245971
2289000000 0.04593794505 -0.3294272951
2290000000 0.03813962241 -0.3240911814
2291000000 0.03057638208 -0.3185331475
2292000000 0.02325573786 -0.3127703597
2293000000 0.01618380312 -0.3068201384
2294000000 0.009365304915 -0.3006998415
2295000000 0.002803608264 -0.2944267493
2296000000 -0.003499250138 -0.2880179543
2297000000 -0.009542519034 -0.2814902556
2298000000 -0.01532668122 -0.2748600585
2299000000 -0.02085339421 -0.2681432806
2300000000 -0.02612542374 -0.2613552647
2301000000 -0.03114657063 -0.2545106991
2302000000 -0.03592159204 -0.2476235455
2303000000 -0.04045611763 -0.2407069756
2304000000 -0.04475656175 -0.2337733162
2305000000 -0.04883003226 -0.2268340027
2306000000 -0.05268423695 -0.2198995423
2307000000 -0.05632738843 -0.2129794861
2308000000 -0.05976810836 -0.2060824098
2309000000 -0.06301533178 -0.1992159041
2310000000 -0.06607821246 -0.1923865736
2311000000 -0.06896603005 -0.1856000442
2312000000 -0.07168809976 -0.1788609794
2313000000 -0.07425368537 -0.1721731036
2314000000 -0.07667191617 -0.1655392343
2315000000 -0.07895170856 -0.1589613195
2316000000 -0.08110169277 -0.1524404834
2317000000 -0.08313014538 -0.1459770765
2318000000 -0.08504492793 -0.139570732
2319000000 -0.08685343208 -0.1332204264
2320000000 -0.0885625317 -0.1269245432
2321000000 -0.09017854202 -0.1206809414
2322000000 -0.09170718613 -0.114487025
2323000000 -0.09315356881 -0.1083398147
2324000000 -0.09452215785 -0.1022360208
2325000000 -0.0958167728 -0.09617211577
2326000000 -0.09704058091 -0.09014440706
2327000000 -0.09819610029 -0.08414910799
2328000000 -0.09928520988 -0.07818240738
2329000000 -0.1003091661 -0.0722405364
2330000000 -0.1012686255 -0.06631983247
2331000000 -0.1021636738 -0.06041679957
2332000000 -0.1029938593 -0.05452816432
2333000000 -0.1037582323 -0.04865092765
2334000000 -0.1044553884 -0.04278241135
2335000000 -0.1050835148 -0.03692029942
2336000000 -0.1056404415 -0.03106267381
2337000000 -0.1061236936 -0.02520804433
2338000000 -0.1065305461 -0.01935537261
2339000000 -0.1068580801 -0.01350409004
2340000000 -0.1071032401 -0.007654109571
2341000000 -0.1072628905 -0.001805831521
2342000000 -0.1073338724 0.004039856649
2343000000 -0.107313059 0.009881586326
2344000000 -0.1071974095 0.01571751936
2345000000 -0.1069840208 0.02154536506
2346000000 -0.1066701762 0.0273624022
2347000000 -0.1062533919 0.03316550576
2348000000 -0.1057314584 0.03895117797
2349000000 -0.1051024799 0.0447155832
2350000000 -0.1043649075 0.05045458636
2351000000 -0.1035175695 0.05616379416
2352000000 -0.1025596956 0.06183859882
2353000000 -0.1014909374 0.06747422374
2354000000 -0.1003113827 0.07306577053
2355000000 -0.09902156538 0.07860826687
2356000000 -0.09762247019 0.08409671474
2357000000 -0.09611553194 0.08952613838
2358000000 -0.09450263011 0.09489163164
2359000000 -0.09278607855 0.100188404
2360000000 -0.09096861042 0.1054118248
2361000000 -0.08905335884 0.1105574659
2362000000 -0.08704383331 0.1156211409
2363000000 -0.08494389243 0.1205989421
2364000000 -0.08275771303 0.1254872737
2365000000 -0.08048975635 0.1302828822
2366000000 -0.07814473149 0.1349828816
2367000000 -0.07572755662 0.139584776
2368000000 -0.07324331845 0.1440864769
2369000000 -0.07069723035 0.1484863163
2370000000 -0.06809458955 0.1527830559
2371000000 -0.06544073404 0.1569758912
2372000000 -0.06274099949 0.1610644513
2373000000 -0.06000067664 0.1650487944
2374000000 -0.05722496976 0.1689293991
2375000000 -0.05441895639 0.1727071509
2376000000 -0.05158754897 0.1763833261
2377000000 -0.04873545856 0.1799595701
2378000000 -0.04586716117 0.1834378742
2379000000 -0.04298686683 0.1868205479
2380000000 -0.04009849193 0.1901101889
2381000000 -0.03720563479 0.1933096505
2382000000 -0.03431155495 0.196422007
2383000000 -0.0314191561 0.1994505178
2384000000 -0.02853097301 0.2023985891
2385000000 -0.02564916231 0.2052697357
2386000000 -0.02277549738 0.2080675425
2387000000 -0.0199113672 0.2107956246
2388000000 -0.01705777914 0.2134575896
2389000000 -0.0142153657 0.2160569988
2390000000 -0.01138439492 0.2185973312
2391000000 -0.008564784469 0.2210819479
2392000000 -0.00575611907 0.2235140587
2393000000 -0.002957671108 0.225896691
2394000000 -0.0001684241573 0.2282326611
2395000000 0.002612900886 0.2305245481
2396000000 0.005387817357 0.232774671
2397000000 0.008158042403 0.2349850688
2398000000 0.01092546493 0.237157484
2399000000 0.01369211228 0.2392933497
2400000000 0.01646011601 0.2413937801
2401000000 0.01923167714 0.2434595644
2402000000 0.02200903124 0.2454911649
2403000000 0.02479441373 0.2474887181
2404000000 0.0275900258 0.2494520395
2405000000 0.03039800117 0.2513806322
2406000000 0.03322037421 0.2532736978
2407000000 0.03605904959 0.255130152
2408000000 0.03891577384 0.2569486412
2409000000 0.04179210907 0.2587275635
2410000000 0.04468940906 0.2604650909
2411000000 0.04760879804 0.2621591946
2412000000 0.05055115228 0.2638076714
2413000000 0.05351708457 0.2654081718
2414000000 0.05650693193 0.2669582302
2415000000 0.05952074638 0.2684552946
2416000000 0.06255828908 0.2698967578
2417000000 0.0656190276 0.2712799888
2418000000 0.06870213653 0.2726023635
2419000000 0.07180650125 0.2738612956
2420000000 0.07493072479 0.2750542665
2421000000 0.07807313776 0.2761788537
2422000000 0.081231811 0.2772327586
2423000000 0.08440457107 0.2782138321
2424000000 0.08758901806 0.2791200985
2425000000 0.09078254575 0.2799497771
2426000000 0.09398236373 0.2807013017
2427000000 0.09718552129 0.2813733374
2428000000 0.1003889327 0.2819647947
2429000000 0.1035894039 0.2824748411
2430000000 0.1067836594 0.2829029093
2431000000 0.1099683708 0.283248703
2432000000 0.1131401846 0.2835121993
2433000000 0.1162957504 0.2836936484
2434000000 0.1194317486 0.2837935707
2435000000 0.1225449175 0.2838127499
2436000000 0.1256320797 0.2837522249
2437000000 0.1286901667 0.2836132778
2438000000 0.1317162425 0.2833974203
2439000000 0.1347075254 0.2831063772
2440000000 0.1376614076 0.2827420681
2441000000 0.1405754732 0.2823065876
2442000000 0.1434475133 0.281802183
2443000000 0.1462755393 0.2812312312
2444000000 0.1490577928 0.2805962147
2445000000 0.1517927538 0.2798996966
2446000000 0.1544791457 0.2791442943
2447000000 0.1571159373 0.2783326542
2448000000 0.159702343 0.2774674256
2449000000 0.1622378189 0.2765512353
2450000000 0.1647220581 0.2755866623
2451000000 0.1671549815 0.2745762139
2452000000 0.1695367277 0.2735223025
2453000000 0.1718676397 0.272427224
2454000000 0.1741482499 0.2712931376
2455000000 0.1763792629 0.2701220474
2456000000 0.178561537 0.2689157861
2457000000 0.1806960632 0.2676760005
2458000000 0.1827839442 0.2664041397
2459000000 0.1848263713 0.265101445
2460000000 0.1868246007 0.263768943
2461000000 0.1887799301 0.2624074409
2462000000 0.1906936735 0.2610175238
2463000000 0.1925671376 0.2595995555
2464000000 0.1944015971 0.2581536814
2465000000 0.1961982714 0.2566798332
2466000000 0.1979583016 0.2551777374
2467000000 0.1996827286 0.2536469247
2468000000 0.2013724727 0.2520867423
2469000000 0.2030283139 0.2504963683
2470000000 0.2046508745 0.2488748277
2471000000 0.2062406033 0.2472210097
2472000000 0.2077977616 0.2455336875
2473000000 0.2093224115 0.2438115382
2474000000 0.2108144061 0.2420531647
2475000000 0.2122733821 0.2402571178
2476000000 0.213698755 0.2384219188
2477000000 0.215089716 0.2365460832
2478000000 0.2164452321 0.2346281435
2479000000 0.217764048 0.2326666724
2480000000 0.21904469 0.2306603054
2481000000 0.2202854732 0.228607763
2482000000 0.22148451 0.2265078716
2483000000 0.2226397206 0.2243595836
2484000000 0.2237488461 0.2221619966
2485000000 0.2248094626 0.2199143701
2486000000 0.2258189974 0.2176161418
2487000000 0.2267747466 0.2152669414
2488000000 0.2276738932 0.2128666024
2489000000 0.2285135276 0.2104151727
2490000000 0.2292906671 0.2079129223
2491000000 0.2300022779 0.2053603493
2492000000 0.2306452956 0.2027581834
2493000000 0.2312166471 0.200107388
2494000000 0.2317132723 0.197409159
2495000000 0.2321321443 0.1946649224
2496000000 0.2324702908 0.1918763295
2497000000 0.2327248131 0.18904525
2498000000 0.2328929056 0.1861737635
2499000000 0.2329718727 0.1832641488
2500000000 0.2329591461 0.1803188723
2501000000 0.2328522986 0.177340574
2502000000 0.2326490586 0.1743320528
2503000000 0.2323473208 0.171296251
2504000000 0.2319451563 0.1682362369
2505000000 0.2314408207 0.1651551872
2506000000 0.2308327599 0.1620563696
2507000000 0.2301196142 0.1589431234
2508000000 0.2293002202 0.1558188418
2509000000 0.2283736113 0.1526869531
2510000000 0.2273390151 0.1495509026
2511000000 0.2261958506 0.1464141354
2512000000 0.2249437219 0.143280079
2513000000 0.2235824116 0.140152128
2514000000 0.2221118716 0.1370336289
2515000000 0.2205322129 0.1339278663
2516000000 0.2188436943 0.1308380509
2517000000 0.2170467095 0.1277673089
2518000000 0.2151417737 0.1247186724
2519000000 0.2131295086 0.1216950724
2520000000 0.2110106281 0.1186993327
2521000000 0.2087859223 0.1157341666
2522000000 0.2064562423 0.1128021743
2523000000 0.2040224842 0.1099058431
2524000000 0.2014855741 0.107047549
2525000000 0.1988464528 0.1042295602
2526000000 0.1961060616 0.1014540421
2527000000 0.1932653287 0.09872306447
2528000000 0.1903251566 0.09603860988
2529000000 0.1872864103 0.09340258339
2530000000 0.1841499078 0.09081682395
2531000000 0.1809164106 0.08828311676
2532000000 0.1775866169 0.08580320669
2533000000 0.174161156 0.08337881254
2534000000 0.1706405841 0.08101164201
2535000000 0.1670253831 0.07870340706
2536000000 0.1633159594 0.07645583963
2537000000 0.1595126466 0.07427070733
2538000000 0.1556157084 0.07214982916
2539000000 0.1516253444 0.07009509074
2540000000 0.1475416975 0.06810845912
2541000000 0.1433648627 0.06619199682
2542000000 0.1390948982 0.06434787497
2543000000 0.1347318376 0.06257838537
2544000000 0.1302757039 0.06088595127
2545000000 0.1257265249 0.05927313675
2546000000 0.1210843494 0.05774265452
2547000000 0.116349265 0.05629737206
2548000000 0.1115214164 0.05494031592
2549000000 0.1066010247 0.05367467419
2550000000 0.1015884067 0.0525037969
2551000000 0.09648399534 0.05143119449
2552000000 0.0912883596 0.05046053415
2553000000 0.08600222433 0.04959563418
2554000000 0.08062649008 0.04884045613
2555000000 0.07516225228 0.04819909504
2556000000 0.06961081964 0.04767576761
2557000000 0.06397373175 0.04727479844
2558000000 0.05825277553 0.04700060444
2559000000 0.05245000038 0.04685767752
2560000000 0.0465677319 0.04685056559
2561000000 0.04060858407 0.04698385214
2562000000 0.03457546951 0.04726213449
2563000000 0.02847160805 0.0476900008
2564000000 0.02230053317 0.0482720062
2565000000 0.01606609642 0.04901264804
2566000000 0.009772469642 0.04991634056
2567000000 0.003424145009 0.05098738916
2568000000 -0.002974067225 0.05222996445
2569000000 -0.009417043238 0.05364807638
2570000000 -0.01589935242 0.05524554851
2571000000 -0.0224152664 0.05702599274
2572000000 -0.02895877031 0.05899278473
2573000000 -0.03552357612 0.06114904007
2574000000 -0.04210313814 0.06349759152
2575000000 -0.04869067039 0.0660409675
2576000000 -0.05527916588 0.0687813719
2577000000 -0.06186141762 0.07172066549
2578000000 -0.06843004112 0.074860349
2579000000 -0.07497749847 0.07820154806
2580000000 -0.08149612349 0.08174500004
2581000000 -0.08797814809 0.08549104306
2582000000 -0.09441572945 0.08943960695
2583000000 -0.1008009779 0.09359020665
2584000000 -0.1071259853 0.09794193764
2585000000 -0.1133828538 0.1024934738
2586000000 -0.1195637245 0.1072430676
2587000000 -0.1256608063 0.1121885522
2588000000 -0.1316664038 0.1173273467
2589000000 -0.1375729458 0.1226564624
2590000000 -0.1433730123 0.1281725122
2591000000 -0.1490593603 0.1338717215
2592000000 -0.1546249497 0.1397499418
2593000000 -0.1600629673 0.1458026649
2594000000 -0.1653668491 0.1520250404
2595000000 -0.1705303021 0.1584118937
2596000000 -0.1755473234 0.1649577458
2597000000 -0.1804122186 0.1716568349
2598000000 -0.1851196176 0.1785031383
2599000000 -0.189664489 0.1854903959
2600000000 -0.1940421523 0.1926121345
2601000000 -0.1982482881 0.1998616926
2602000000 -0.2022789467 0.2072322454
2603000000 -0.2061305538 0.2147168311
2604000000 -0.2097999153 0.2223083757
2605000000 -0.213284219 0.2299997196
2606000000 -0.2165810352 0.2377836423
2607000000 -0.2196883147 0.2456528879
2608000000 -0.2226043856 0.2536001895
2609000000 -0.2253279476 0.2616182931
2610000000 -0.2278580653 0.2696999806
2611000000 -0.2301941592 0.2778380919
2612000000 -0.2323359961 0.2860255457
2613000000 -0.2342836772 0.2942553599
2614000000 -0.2360376257 0.3025206695
2615000000 -0.2375985727 0.3108147444
2616000000 -0.2389675427 0.319131005
2617000000 -0.2401458376 0.3274630365
2618000000 -0.2411350209 0.3358046023
2619000000 -0.2419369002 0.3441496546
2620000000 -0.2425535103 0.3524923451
2621000000 -0.2429870957 0.3608270328
2622000000 -0.2432400924 0.3691482908
2623000000 -0.2433151106 0.3774509121
2624000000 -0.2432149167 0.3857299131
2625000000 -0.2429424165 0.393980536
2626000000 -0.2425006372 0.4021982506
2627000000 -0.2418927117 0.4103787533
2628000000 -0.241121862 0.4185179664
2629000000 -0.2401913836 0.4266120353
2630000000 -0.2391046313 0.4346573252
2631000000 -0.2378650046 0.4426504166
2632000000 -0.2364759349 0.4505881
2633000000 -0.2349408731 0.4584673696
2634000000 -0.233263278 0.4662854171
2635000000 -0.231446606 0.4740396239
2636000000 -0.2294943015 0.4817275539
2637000000 -0.2274097883 0.4893469447
2638000000 -0.2251964619 0.4968957001
2639000000 -0.222857683 0.5043718806
2640000000 -0.2203967712 0.5117736955
2641000000 -0.2178170007 0.519099494
2642000000 -0.2151215955 0.5263477566
2643000000 -0.212313727 0.5335170866
2644000000 -0.2093965106 0.5406062017
2645000000 -0.2063730048 0.5476139267
2646000000 -0.203246209 0.5545391848
2647000000 -0.2000190643 0.5613809912
2648000000 -0.1966944521 0.5681384457
2649000000 -0.1932751957 0.5748107261
2650000000 -0.1897640607 0.5813970825
2651000000 -0.1861637563 0.5878968315
2652000000 -0.1824769368 0.594309351
2653000000 -0.1787062038 0.6006340756
2654000000 -0.1748541076 0.6068704924
2655000000 -0.1709231498 0.6130181375
2656000000 -0.1669157851 0.6190765921
2657000000 -0.162834424 0.6250454803
2658000000 -0.1586814345 0.6309244662
2659000000 -0.1544591444 0.6367132519
2660000000 -0.1501698438 0.642411576
2661000000 -0.1458157861 0.6480192116
2662000000 -0.141399191 0.6535359658
2663000000 -0.1369222452 0.6589616785
2664000000 -0.1323871042 0.6642962215
2665000000 -0.1277958938 0.6695394984
2666000000 -0.1231507107 0.6746914438
2667000000 -0.118453624 0.6797520234
2668000000 -0.1137066755 0.6847212336
2669000000 -0.1089118801 0.6895991014
2670000000 -0.1040712268 0.6943856842
2671000000 -0.09918667806 0.6990810699
2672000000 -0.09426017039 0.7036853765
2673000000 -0.08929361403 0.7081987518
2674000000 -0.08428889278 0.7126213735
2675000000 -0.07924786365 0.7169534484
2676000000 -0.07417235648 0.7211952123
2677000000 -0.0690641735 0.7253469292
2678000000 -0.06392508882 0.7294088906
2679000000 -0.05875684795 0.7333814152
2680000000 -0.0535611673 0.7372648474
2681000000 -0.04833973369 0.7410595567
2682000000 -0.04309420394 0.7447659366
2683000000 -0.03782620446 0.7483844033
2684000000 -0.03253733097 0.7519153948
2685000000 -0.02722914825 0.7553593693
2686000000 -0.02190319002 0.7587168041
2687000000 -0.01656095883 0.761988194
2688000000 -0.01120392621 0.7651740503
2689000000 -0.005833532724 0.7682748989
2690000000 -0.0004511883083 0.7712912794
2691000000 0.004941727418 0.7742237435
2692000000 0.01034386468 0.7770728536
2693000000 0.015753903 0.7798391818
2694000000 0.02117055056 0.7825233084
2695000000 0.02659254351 0.7851258208
2696000000 0.03201864518 0.7876473127
2697000000 0.03744764524 0.7900883827
2698000000 0.04287835886 0.7924496336
2699000000 0.04830962575 0.7947316715
2700000000 0.05374030927 0.7969351051
