! PRELIMINARY bare PCB unless shell_eps > 0; see README.md
! L220 output ($1N324), with L220 and C216 excluded and C217 DNP
# Hz S RI R 50
2200000000 -0.04996060478 -0.1878642271
2201000000 -0.05776882813 -0.1852714405
2202000000 -0.06558073264 -0.1822873436
2203000000 -0.07336919979 -0.1789119328
2204000000 -0.08110733051 -0.175147269
2205000000 -0.08876861145 -0.1709974377
2206000000 -0.09632707588 -0.1664684942
2207000000 -0.1037574581 -0.1615683968
2208000000 -0.1110353405 -0.1563069266
2209000000 -0.1181372909 -0.1506955952
2210000000 -0.1250409918 -0.1447475424
2211000000 -0.1317253574 -0.1384774233
2212000000 -0.1381706402 -0.1319012866
2213000000 -0.1443585252 -0.1250364457
2214000000 -0.1502722115 -0.1179013429
2215000000 -0.1558964808 -0.1105154086
2216000000 -0.1612177523 -0.1028989164
2217000000 -0.1662241246 -0.09507283544
2218000000 -0.1709054028 -0.08705868201
2219000000 -0.1752531134 -0.07887837008
2220000000 -0.1792605042 -0.07055406381
2221000000 -0.182922532 -0.06210803219
2222000000 -0.1862358375 -0.05356250738
2223000000 -0.189198707 -0.04493954787
2224000000 -0.1918110241 -0.03626090754
2225000000 -0.1940742084 -0.02754791162
2226000000 -0.1959911461 -0.01882134052
2227000000 -0.1975661102 -0.01010132237
2228000000 -0.1988046724 -0.001407235072
2229000000 -0.1997136089 0.007242381631
2230000000 -0.2003007987 0.01582990333
2231000000 -0.200575118 0.02433868707
2232000000 -0.20054633 0.0327531261
2233000000 -0.2002249729 0.04105869294
2234000000 -0.1996222454 0.04924197086
2235000000 -0.1987498931 0.05729067367
2236000000 -0.1976200946 0.06519365402
2237000000 -0.1962453505 0.07294090058
2238000000 -0.1946383752 0.08052352428
2239000000 -0.1928119926 0.08793373431
2240000000 -0.1907790376 0.09516480435
2241000000 -0.1885522628 0.1022110297
2242000000 -0.186144253 0.1090676764
2243000000 -0.1835673463 0.1157309221
2244000000 -0.1808335647 0.1221977917
2245000000 -0.1779545521 0.1284660863
2246000000 -0.1749415231 0.1345343079
2247000000 -0.1718052203 0.1404015809
2248000000 -0.1685558818 0.1460675712
2249000000 -0.1652032188 0.1515324033
2250000000 -0.161756403 0.1567965781
2251000000 -0.1582240637 0.1618608907
2252000000 -0.1546142951 0.1667263508
2253000000 -0.150934672 0.1713941056
2254000000 -0.1471922752 0.1758653667
2255000000 -0.1433937243 0.180141342
2256000000 -0.1395452191 0.1842231732
2257000000 -0.1356525875 0.1881118796
2258000000 -0.131721339 0.1918083094
2259000000 -0.1277567247 0.1953130988
2260000000 -0.1237638006 0.1986266392
2261000000 -0.1197474949 0.2017490535
2262000000 -0.1157126769 0.2046801812
2263000000 -0.1116642286 0.2074195728
2264000000 -0.1076071149 0.2099664942
2265000000 -0.1035464543 0.2123199395
2266000000 -0.09948758741 0.2144786535
2267000000 -0.09543614178 0.2164411637
2268000000 -0.09139809411 0.2182058203
2269000000 -0.0873798267 0.2197708444
2270000000 -0.08338817838 0.2211343843
2271000000 -0.07943048884 0.2222945787
2272000000 -0.07551463547 0.2232496256
2273000000 -0.07164906205 0.2239978576
2274000000 -0.06784279876 0.2245378208
2275000000 -0.06410547285 0.2248683582
2276000000 -0.06044730961 0.2249886945
2277000000 -0.05687912338 0.224898524
2278000000 -0.0534122983 0.2245980975
2279000000 -0.05005875873 0.2240883093
2280000000 -0.04683092942 0.2233707823
2281000000 -0.04374168546 0.2224479503
2282000000 -0.04080429244 0.2213231357
2283000000 -0.03803233695 0.2200006234
2284000000 -0.03543964807 0.2184857273
2285000000 -0.03304021046 0.2167848501
2286000000 -0.03084806949 0.2149055361
2287000000 -0.02887722958 0.2128565131
2288000000 -0.02714154618 0.210647727
2289000000 -0.02565461273 0.2082903641
2290000000 -0.02442964338 0.2057968635
2291000000 -0.0234793526 0.2031809178
2292000000 -0.02281583292 0.2004574622
2293000000 -0.02245043178 0.197642651
2294000000 -0.02239362891 0.1947538224
2295000000 -0.02265491531 0.1918094504
2296000000 -0.02324267507 0.1888290854
2297000000 -0.02416407133 0.1858332819
2298000000 -0.02542493751 0.1828435151
2299000000 -0.02702967499 0.1798820858
2300000000 -0.02898115839 0.1769720153
2301000000 -0.0312806495 0.1741369297
2302000000 -0.03392772086 0.1714009354
2303000000 -0.03692018998 0.168788486
2304000000 -0.04025406497 0.1663242421
2305000000 -0.04392350236 0.1640329246
2306000000 -0.04792077783 0.1619391628
2307000000 -0.05223627029 0.1600673388
2308000000 -0.0568584598 0.1584414291
2309000000 -0.06177393963 0.1570848441
2310000000 -0.06696744267 0.1560202689
2311000000 -0.07242188219 0.1552695034
2312000000 -0.07811840696 0.1548533068
2313000000 -0.08403647044 0.1547912448
2314000000 -0.09015391388 0.1551015425
2315000000 -0.09644706265 0.1558009432
2316000000 -0.1028908354 0.1569045762
2317000000 -0.1094588656 0.1584258318
2318000000 -0.1161236338 0.1603762479
2319000000 -0.1228566109 0.1627654067
2320000000 -0.1296284104 0.165600844
2321000000 -0.1364089494 0.1688879707
2322000000 -0.1431676165 0.1726300093
2323000000 -0.1498734452 0.1768279432
2324000000 -0.1564952932 0.181480482
2325000000 -0.1630020231 0.1865840414
2326000000 -0.1693626872 0.1921327393
2327000000 -0.1755467107 0.1981184074
2328000000 -0.1815240752 0.2045306178
2329000000 -0.1872655001 0.211356727
2330000000 -0.192742619 0.2185819335
2331000000 -0.1979281522 0.2261893518
2332000000 -0.2027960719 0.2341601003
2333000000 -0.2073217606 0.2424734034
2334000000 -0.2114821594 0.2511067072
2335000000 -0.2152559068 0.2600358067
2336000000 -0.2186234665 0.2692349859
2337000000 -0.2215672423 0.2786771666
2338000000 -0.2240716803 0.2883340684
2339000000 -0.2261233574 0.2981763753
2340000000 -0.2277110548 0.30817391
2341000000 -0.2288258168 0.3182958132
2342000000 -0.2294609937 0.3285107281
2343000000 -0.229612269 0.338786986
2344000000 -0.2292776709 0.3490927949
2345000000 -0.2284575676 0.3593964269
2346000000 -0.227154646 0.3696664046
2347000000 -0.2253738758 0.3798716846
2348000000 -0.2231224575 0.3899818363
2349000000 -0.2204097558 0.3999672154
2350000000 -0.2172472182 0.4097991308
2351000000 -0.213648281 0.4194500021
2352000000 -0.2096282615 0.4288935095
2353000000 -0.2052042392 0.4381047317
2354000000 -0.2003949252 0.4470602739
2355000000 -0.1952205231 0.4557383819
2356000000 -0.1897025803 0.4641190452
2357000000 -0.1838638323 0.4721840843
2358000000 -0.1777280415 0.4799172255
2359000000 -0.17131983 0.4873041604
2360000000 -0.1646645102 0.4943325897
2361000000 -0.1577879134 0.5009922537
2362000000 -0.1507162163 0.5072749457
2363000000 -0.1434757703 0.5131745117
2364000000 -0.1360929313 0.5186868348
2365000000 -0.1285938934 0.5238098051
2366000000 -0.1210045276 0.5285432752
2367000000 -0.113350226 0.532889003
2368000000 -0.1056557526 0.5368505809
2369000000 -0.09794510354 0.5404333535
2370000000 -0.0902413749 0.5436443237
2371000000 -0.08256664166 0.5464920489
2372000000 -0.07494184692 0.5489865278
2373000000 -0.0673867029 0.5511390791
2374000000 -0.05991960396 0.5529622134
2375000000 -0.05255755237 0.5544694992
2376000000 -0.04531609697 0.555675424
2377000000 -0.03820928522 0.5565952529
2378000000 -0.03124962854 0.5572448845
2379000000 -0.02444808111 0.557640706
2380000000 -0.01781403204 0.557799449
2381000000 -0.01135531052 0.5577380468
2382000000 -0.005078203907 0.5574734949
2383000000 0.001012512002 0.5570227146
2384000000 0.006913530747 0.5564024226
2385000000 0.01262296188 0.5556290063
2386000000 0.01814026716 0.5547184058
2387000000 0.02346618705 0.5536860047
2388000000 0.02860265843 0.5525465285
2389000000 0.03355272449 0.5513139532
2390000000 0.03832043769 0.5500014238
2391000000 0.0429107569 0.5486211826
2392000000 0.04732943977 0.5471845095
2393000000 0.0515829314 0.5457016724
2394000000 0.05567825047 0.5441818897
2395000000 0.05962287381 0.5426333039
2396000000 0.0634246207 0.5410629669
2397000000 0.06709153781 0.5394768357
2398000000 0.0706317859 0.5378797806
2399000000 0.07405352933 0.5362756028
2400000000 0.07736482938 0.5346670629
2401000000 0.08057354209 0.5330559188
2402000000 0.08368722184 0.5314429735
2403000000 0.0867130311 0.5298281306
2404000000 0.08965765734 0.5282104579
2405000000 0.09252723755 0.5265882581
2406000000 0.09532729109 0.5249591452
2407000000 0.09806266114 0.523320127
2408000000 0.1007374653 0.5216676911
2409000000 0.1033550557 0.5199978947
2410000000 0.1059179882 0.5183064564
2411000000 0.1084280018 0.5165888505
2412000000 0.1108860074 0.5148404007
2413000000 0.113292086 0.513056374
2414000000 0.1156454966 0.5112320732
2415000000 0.117944693 0.5093629268
2416000000 0.120187349 0.5074445765
2417000000 0.122370393 0.5054729605
2418000000 0.1244900489 0.5034443917
2419000000 0.1265418855 0.5013556313
2420000000 0.1285208722 0.4992039562
2421000000 0.13042144 0.4969872198
2422000000 0.1322375488 0.4947039058
2423000000 0.1339627582 0.4923531747
2424000000 0.1355903027 0.4899349025
2425000000 0.1371131692 0.4874497116
2426000000 0.138524177 0.4848989931
2427000000 0.1398160586 0.4822849218
2428000000 0.1409815416 0.4796104616
2429000000 0.142013429 0.4768793643
2430000000 0.1429046798 0.4740961592
2431000000 0.1436484862 0.4712661356
2432000000 0.1442383491 0.4683953176
2433000000 0.1446681501 0.4654904323
2434000000 0.1449322186 0.4625588705
2435000000 0.1450253958 0.459608642
2436000000 0.1449430922 0.4566483254
2437000000 0.1446813401 0.4536870119
2438000000 0.1442368403 0.4507342458
2439000000 0.1436070018 0.447799961
2440000000 0.1427899757 0.4448944137
2441000000 0.1417846814 0.442028114
2442000000 0.1405908265 0.4392117545
2443000000 0.1392089196 0.4364561392
2444000000 0.1376402759 0.4337721111
2445000000 0.1358870163 0.4311704807
2446000000 0.133952059 0.4286619558
2447000000 0.1318391056 0.4262570724
2448000000 0.1295526202 0.4239661285
2449000000 0.1270978026 0.4217991205
2450000000 0.1244805567 0.4197656835
2451000000 0.1217074527 0.4178750343
2452000000 0.1187856854 0.4161359205
2453000000 0.1157230283 0.414556573
2454000000 0.1125277839 0.413144664
2455000000 0.109208731 0.41190727
2456000000 0.1057750696 0.4108508414
2457000000 0.1022363637 0.4099811759
2458000000 0.09860248326 0.4093033994
2459000000 0.09488354494 0.4088219518
2460000000 0.09108985303 0.4085405783
2461000000 0.08723184073 0.408462327
2462000000 0.08332001233 0.4085895513
2463000000 0.07936488696 0.4089239183
2464000000 0.07537694434 0.4094664212
2465000000 0.07136657295 0.4102173974
2466000000 0.06734402099 0.4111765502
2467000000 0.06331935067 0.4123429749
2468000000 0.05930239601 0.4137151886
2469000000 0.05530272446 0.4152911624
2470000000 0.05132960263 0.4170683572
2471000000 0.04739196621 0.4190437611
2472000000 0.04349839436 0.421213929
2473000000 0.03965708842 0.4235750225
2474000000 0.03587585518 0.4261228521
2475000000 0.03216209459 0.4288529183
2476000000 0.02852279179 0.4317604528
2477000000 0.02496451343 0.43484046
2478000000 0.02149340803 0.4380877562
2479000000 0.01811521019 0.4414970081
2480000000 0.01483524848 0.445062769
2481000000 0.01165845655 0.4487795136
2482000000 0.008589387319 0.4526416693
2483000000 0.005632229819 0.4566436454
2484000000 0.002790828323 0.4607798596
2485000000 6.870339587e-05 0.4650447604
2486000000 -0.00253092552 0.4694328473
2487000000 -0.005005116404 0.4739386871
2488000000 -0.007351180239 0.4785569269
2489000000 -0.009566656261 0.4832823035
2490000000 -0.0116492873 0.48810965
2491000000 -0.01359699559 0.4930338987
2492000000 -0.01540785932 0.498050081
2493000000 -0.01708009052 0.5031533244
2494000000 -0.01861201424 0.5083388466
2495000000 -0.02000204966 0.5136019476
2496000000 -0.02124869319 0.5189379985
2497000000 -0.02235050382 0.5243424298
2498000000 -0.02330609098 0.5298107167
2499000000 -0.02411410501 0.5353383639
2500000000 -0.02477323034 0.5409208894
2501000000 -0.02528218148 0.5465538073
2502000000 -0.02563970191 0.5522326104
2503000000 -0.02584456571 0.5579527535
2504000000 -0.02589558206 0.5637096367
2505000000 -0.02579160241 0.5694985889
2506000000 -0.02553153019 0.5753148539
2507000000 -0.02511433298 0.5811535764
2508000000 -0.02453905691 0.5870097908
2509000000 -0.023804843 0.5928784115
2510000000 -0.02291094527 0.5987542253
2511000000 -0.02185675034 0.6046318868
2512000000 -0.02064179815 0.6105059157
2513000000 -0.01926580352 0.6163706974
2514000000 -0.01772867828 0.6222204863
2515000000 -0.01603055352 0.6280494114
2516000000 -0.01417180169 0.6338514862
2517000000 -0.0121530582 0.6396206199
2518000000 -0.009975242167 0.6453506325
2519000000 -0.007639575899 0.6510352726
2520000000 -0.005147602967 0.6566682375
2521000000 -0.002501204391 0.6622431955
2522000000 0.0002973872782 0.6677538117
2523000000 0.003245576236 0.6731937744
2524000000 0.006340394335 0.6785568242
2525000000 0.009578494815 0.6838367844
2526000000 0.01295614905 0.6890275924
2527000000 0.01646924642 0.6941233326
2528000000 0.02011329752 0.6991182688
2529000000 0.02388344061 0.7040068779
2530000000 0.02777445152 0.7087838828
2531000000 0.03178075687 0.7134442851
2532000000 0.03589645071 0.7179833968
2533000000 0.0401153143 0.7223968704
2534000000 0.04443083913 0.7266807284
2535000000 0.04883625289 0.73083139
2536000000 0.05332454822 0.734845696
2537000000 0.05788851408 0.738720931
2538000000 0.06252076946 0.7424548432
2539000000 0.0672137991 0.7460456608
2540000000 0.07195999104 0.7494921051
2541000000 0.07675167553 0.7527934008
2542000000 0.08158116508 0.755949282
2543000000 0.08644079526 0.7589599951
2544000000 0.09132296581 0.7618262974
2545000000 0.09622018184 0.7645494529
2546000000 0.1011250946 0.7671312227
2547000000 0.1060305414 0.7695738536
2548000000 0.1109295848 0.7718800614
2549000000 0.1158155497 0.7740530115
2550000000 0.1206820594 0.7760962958
2551000000 0.1255230687 0.7780139069
2552000000 0.1303328949 0.7798102084
2553000000 0.1351062465 0.7814899032
2554000000 0.1398382482 0.7830579991
2555000000 0.144524463 0.784519772
2556000000 0.1491609105 0.7858807278
2557000000 0.1537440828 0.7871465621
2558000000 0.1582709548 0.7883231195
2559000000 0.1627389925 0.7894163512
2560000000 0.1671461561 0.7904322732
2561000000 0.1714909 0.7913769239
2562000000 0.1757721689 0.7922563216
2563000000 0.1799893892 0.7930764239
2564000000 0.1841424582 0.7938430872
2565000000 0.1882317282 0.794562028
2566000000 0.1922579882 0.7952387857
2567000000 0.1962224421 0.7958786878
2568000000 0.2001266835 0.7964868175
2569000000 0.2039726686 0.7970679837
2570000000 0.2077626858 0.7976266938
2571000000 0.2114993234 0.7981671299
2572000000 0.2151854361 0.7986931284
2573000000 0.218824109 0.7992081624
2574000000 0.2224186208 0.7997153282
2575000000 0.225972407 0.8002173353
2576000000 0.2294890212 0.8007164999
2577000000 0.2329720975 0.8012147421
2578000000 0.236425313 0.8017135869
2579000000 0.2398523501 0.8022141685
2580000000 0.2432568609 0.8027172384
2581000000 0.2466424324 0.8032231761
2582000000 0.2500125531 0.8037320042
2583000000 0.2533705817 0.8042434048
2584000000 0.2567197181 0.8047567404
2585000000 0.2600629767 0.8052710756
2586000000 0.2634031624 0.8057852026
2587000000 0.2667428489 0.806297667
2588000000 0.2700843611 0.8068067967
2589000000 0.2734297591 0.807310731
2590000000 0.2767808268 0.8078074516
2591000000 0.2801390624 0.8082948132
2592000000 0.2835056736 0.8087705752
2593000000 0.2868815745 0.8092324334
2594000000 0.2902673869 0.8096780506
2595000000 0.293663444 0.8101050875
2596000000 0.2970697971 0.810511232
2597000000 0.300486226 0.8108942273
2598000000 0.3039122508 0.8112518989
2599000000 0.3073471468 0.8115821793
2600000000 0.3107899624 0.811883131
2601000000 0.3142395373 0.8121529675
2602000000 0.3176945242 0.812390071
2603000000 0.3211534109 0.8125930092
2604000000 0.3246145441 0.8127605476
2605000000 0.3280761542 0.8128916605
2606000000 0.33153638 0.8129855385
2607000000 0.3349932947 0.8130415938
2608000000 0.3384449314 0.8130594618
2609000000 0.3418893084 0.8130390006
2610000000 0.3453244539 0.8129802881
2611000000 0.3487484302 0.8128836155
2612000000 0.3521593561 0.8127494796
2613000000 0.3555554291 0.8125785715
2614000000 0.3589349452 0.8123717644
2615000000 0.3622963169 0.8121300985
2616000000 0.36563809 0.8118547648
2617000000 0.3689589575 0.8115470869
2618000000 0.3722577719 0.8112085023
2619000000 0.375533555 0.8108405416
2620000000 0.3787855053 0.8104448083
2621000000 0.3820130027 0.810022957
2622000000 0.3852156113 0.8095766718
2623000000 0.3883930795 0.8091076454
2624000000 0.3915453378 0.8086175572
2625000000 0.3946724938 0.8081080533
2626000000 0.3977748259 0.8075807265
2627000000 0.4008527742 0.8070370977
2628000000 0.4039069297 0.8064785987
2629000000 0.4069380218 0.8059065558
2630000000 0.4099469036 0.8053221758
2631000000 0.412934537 0.8047265336
2632000000 0.4159019753 0.8041205612
2633000000 0.4188503456 0.8035050397
2634000000 0.4217808304 0.8028805924
2635000000 0.4246946486 0.8022476804
2636000000 0.427593036 0.8016066012
2637000000 0.4304772264 0.800957488
2638000000 0.4333484323 0.8003003122
2639000000 0.4362078267 0.7996348882
2640000000 0.4390565249 0.7989608789
2641000000 0.4418955679 0.7982778049
2642000000 0.4447259065 0.7975850541
2643000000 0.4475483866 0.7968818935
2644000000 0.4503637367 0.7961674828
2645000000 0.4531725559 0.7954408887
2646000000 0.4559753046 0.7947011009
2647000000 0.4587722969 0.7939470487
2648000000 0.4615636942 0.7931776182
2649000000 0.464349502 0.7923916703
2650000000 0.4671295675 0.7915880591
2651000000 0.4699035803 0.7907656496
2652000000 0.4726710745 0.789923336
2653000000 0.4754314329 0.7890600594
2654000000 0.4781838932 0.7881748242
2655000000 0.4809275561 0.787266715
2656000000 0.4836613946 0.7863349109
2657000000 0.4863842662 0.7853787
2658000000 0.4890949246 0.7843974918
2659000000 0.4917920346 0.7833908278
2660000000 0.4944741868 0.7823583915
2661000000 0.4971399138 0.7813000153
2662000000 0.4997877072 0.7802156871
2663000000 0.5024160342 0.7791055534
2664000000 0.5050233561 0.7779699216
2665000000 0.5076081453 0.7768092602
2666000000 0.5101689028 0.7756241963
2667000000 0.5127041759 0.7744155122
2668000000 0.5152125741 0.7731841396
2669000000 0.5176927855 0.7719311518
2670000000 0.5201435911 0.7706577549
2671000000 0.5225638793 0.7693652769
2672000000 0.5249526576 0.7680551556
2673000000 0.5273090641 0.7667289252
2674000000 0.5296323768 0.7653882016
2675000000 0.5319220214 0.7640346671
2676000000 0.5341775774 0.7626700545
2677000000 0.5363987823 0.7612961298
2678000000 0.5385855339 0.7599146757
2679000000 0.5407378907 0.7585274745
2680000000 0.5428560706 0.7571362906
2681000000 0.5449404478 0.7557428542
2682000000 0.5469915472 0.7543488451
2683000000 0.5490100381 0.7529558769
2684000000 0.5509967254 0.7515654825
2685000000 0.55295254 0.7501791007
2686000000 0.5548785267 0.7487980635
2687000000 0.5567758322 0.7474235857
2688000000 0.5586456912 0.7460567547
2689000000 0.5604894114 0.7446985233
2690000000 0.5623083583 0.743349703
2691000000 0.5641039393 0.74201096
2692000000 0.5658775874 0.7406828124
2693000000 0.5676307443 0.7393656295
2694000000 0.5693648448 0.7380596329
2695000000 0.5710813 0.7367648994
2696000000 0.572781482 0.7354813658
2697000000 0.5744667087 0.7342088349
2698000000 0.5761382299 0.7329469841
2699000000 0.5777972141 0.7316953745
2700000000 0.5794447366 0.7304534621
