! PRELIMINARY bare PCB unless shell_eps > 0; see README.md
! L220 output ($1N324); all Gerber copper, components omitted (C216/L220/C217 not populated)
# Hz S RI R 50
2200000000 -0.009399526387 -0.5739902403
2201000000 -0.0157588493 -0.5721515911
2202000000 -0.02211342802 -0.5702490591
2203000000 -0.02846244434 -0.5682825497
2204000000 -0.03480507693 -0.566251981
2205000000 -0.04114050156 -0.564157284
2206000000 -0.04746789133 -0.5619984024
2207000000 -0.05378641688 -0.5597752927
2208000000 -0.06009524665 -0.5574879244
2209000000 -0.06639354706 -0.5551362802
2210000000 -0.07268048281 -0.5527203555
2211000000 -0.07895521703 -0.5502401591
2212000000 -0.08521691158 -0.5476957128
2213000000 -0.09146472725 -0.5450870514
2214000000 -0.09769782402 -0.5424142232
2215000000 -0.1039153613 -0.5396772897
2216000000 -0.110116498 -0.5368763254
2217000000 -0.1163003931 -0.5340114184
2218000000 -0.1224662056 -0.5310826698
2219000000 -0.1286130949 -0.5280901942
2220000000 -0.134740221 -0.5250341194
2221000000 -0.1408467445 -0.5219145866
2222000000 -0.1469318276 -0.5187317502
2223000000 -0.1529946332 -0.515485778
2224000000 -0.1590343261 -0.512176851
2225000000 -0.1650500728 -0.5088051634
2226000000 -0.1710410418 -0.5053709228
2227000000 -0.1770064039 -0.50187435
2228000000 -0.1829453324 -0.4983156788
2229000000 -0.1888570032 -0.4946951563
2230000000 -0.1947405954 -0.4910130427
2231000000 -0.200595291 -0.4872696113
2232000000 -0.2064202756 -0.4834651481
2233000000 -0.2122147386 -0.4795999526
2234000000 -0.217977873 -0.4756743366
2235000000 -0.2237088761 -0.4716886253
2236000000 -0.2294069496 -0.4676431561
2237000000 -0.2350712996 -0.4635382797
2238000000 -0.2407011372 -0.4593743589
2239000000 -0.2462956784 -0.4551517693
2240000000 -0.2518541445 -0.4508708989
2241000000 -0.2573757623 -0.446532148
2242000000 -0.2628597643 -0.4421359294
2243000000 -0.268305389 -0.4376826677
2244000000 -0.2737118808 -0.4331727999
2245000000 -0.2790784906 -0.4286067747
2246000000 -0.2844044759 -0.423985053
2247000000 -0.2896891009 -0.419308107
2248000000 -0.2949316369 -0.4145764209
2249000000 -0.3001313621 -0.4097904902
2250000000 -0.3052875624 -0.4049508219
2251000000 -0.3103995312 -0.400057934
2252000000 -0.3154665695 -0.3951123558
2253000000 -0.3204879865 -0.3901146276
2254000000 -0.3254630996 -0.3850653005
2255000000 -0.3303912343 -0.3799649362
2256000000 -0.335271725 -0.3748141071
2257000000 -0.3401039145 -0.3696133957
2258000000 -0.3448871547 -0.364363395
2259000000 -0.3496208066 -0.3590647079
2260000000 -0.3543042405 -0.3537179475
2261000000 -0.3589368361 -0.3483237362
2262000000 -0.3635179825 -0.3428827063
2263000000 -0.368047079 -0.3373954995
2264000000 -0.3725235344 -0.3318627664
2265000000 -0.376946768 -0.3262851671
2266000000 -0.3813162091 -0.3206633703
2267000000 -0.3856312974 -0.3149980533
2268000000 -0.3898914832 -0.3092899022
2269000000 -0.3940962277 -0.3035396113
2270000000 -0.3982450025 -0.2977478828
2271000000 -0.4023372906 -0.291915427
2272000000 -0.4063725858 -0.2860429621
2273000000 -0.4103503934 -0.2801312135
2274000000 -0.4142702298 -0.2741809141
2275000000 -0.4181316231 -0.2681928039
2276000000 -0.4219341129 -0.2621676298
2277000000 -0.4256772504 -0.2561061455
2278000000 -0.4293605988 -0.2500091111
2279000000 -0.4329837332 -0.2438772931
2280000000 -0.4365462407 -0.2377114638
2281000000 -0.4400477205 -0.2315124017
2282000000 -0.443487784 -0.2252808907
2283000000 -0.446866055 -0.2190177204
2284000000 -0.4501821696 -0.2127236852
2285000000 -0.4534357763 -0.2063995849
2286000000 -0.4566265365 -0.2000462238
2287000000 -0.4597541237 -0.1936644108
2288000000 -0.4628182246 -0.1872549591
2289000000 -0.4658185381 -0.1808186861
2290000000 -0.4687547765 -0.1743564128
2291000000 -0.4716266645 -0.1678689642
2292000000 -0.4744339399 -0.1613571683
2293000000 -0.4771763534 -0.1548218567
2294000000 -0.4798536688 -0.1482638635
2295000000 -0.4824656628 -0.1416840259
2296000000 -0.4850121251 -0.1350831833
2297000000 -0.4874928588 -0.1284621775
2298000000 -0.4899076799 -0.1218218523
2299000000 -0.4922564173 -0.1151630534
2300000000 -0.4945389136 -0.1084866277
2301000000 -0.4967550241 -0.1017934238
2302000000 -0.4989046174 -0.09508429127
2303000000 -0.5009875754 -0.08836008048
2304000000 -0.5030037929 -0.08162164251
2305000000 -0.504953178 -0.07486982881
2306000000 -0.5068356519 -0.068105491
2307000000 -0.5086511491 -0.06132948068
2308000000 -0.5103996168 -0.05454264911
2309000000 -0.5120810158 -0.04774584708
2310000000 -0.5136953194 -0.04093992463
2311000000 -0.5152425144 -0.03412573081
2312000000 -0.5167226002 -0.02730411352
2313000000 -0.5181355894 -0.0204759192
2314000000 -0.5194815072 -0.01364199269
2315000000 -0.5207603921 -0.00680317694
2316000000 -0.5219722948 3.968716718e-05
2317000000 -0.5231172791 0.00688576105
2318000000 -0.5241954215 0.01373420865
2319000000 -0.5252068108 0.02058419663
2320000000 -0.5261515485 0.02743489461
2321000000 -0.5270297486 0.03428547538
2322000000 -0.5278415374 0.04113511507
2323000000 -0.5285870534 0.04798299343
2324000000 -0.5292664475 0.05482829397
2325000000 -0.5298798825 0.06167020421
2326000000 -0.5304275333 0.06850791584
2327000000 -0.5309095867 0.07534062496
2328000000 -0.5313262414 0.08216753228
2329000000 -0.5316777077 0.08898784327
2330000000 -0.5319642076 0.09580076841
2331000000 -0.5321859744 0.1026055233
2332000000 -0.5323432531 0.1094013291
2333000000 -0.5324362997 0.1161874122
2334000000 -0.5324653813 0.1229630049
2335000000 -0.5324307762 0.1297273455
2336000000 -0.5323327735 0.1364796783
2337000000 -0.5321716731 0.1432192538
2338000000 -0.5319477853 0.149945329
2339000000 -0.5316614311 0.1566571676
2340000000 -0.5313129418 0.16335404
2341000000 -0.5309026588 0.1700352234
2342000000 -0.5304309337 0.1767000024
2343000000 -0.5298981278 0.1833476687
2344000000 -0.5293046123 0.1899775212
2345000000 -0.5286507681 0.1965888669
2346000000 -0.5279369851 0.2031810199
2347000000 -0.527163663 0.2097533025
2348000000 -0.5263312102 0.216305045
2349000000 -0.5254400443 0.2228355858
2350000000 -0.5244905917 0.2293442715
2351000000 -0.5234832872 0.235830457
2352000000 -0.5224185742 0.2422935061
2353000000 -0.5212969044 0.2487327908
2354000000 -0.5201187375 0.2551476921
2355000000 -0.5188845413 0.2615376
2356000000 -0.5175947911 0.2679019132
2357000000 -0.5162499699 0.2742400397
2358000000 -0.5148505681 0.2805513967
2359000000 -0.5133970833 0.2868354107
2360000000 -0.5118900201 0.2930915175
2361000000 -0.5103298899 0.2993191626
2362000000 -0.5087172108 0.3055178009
2363000000 -0.5070525074 0.3116868971
2364000000 -0.5053363105 0.3178259257
2365000000 -0.5035691569 0.3239343709
2366000000 -0.5017515894 0.3300117269
2367000000 -0.4998841566 0.3360574979
2368000000 -0.4979674124 0.3420711981
2369000000 -0.496001916 0.3480523518
2370000000 -0.493988232 0.3540004936
2371000000 -0.4919269296 0.3599151683
2372000000 -0.4898185829 0.3657959308
2373000000 -0.4876637704 0.3716423465
2374000000 -0.4854630752 0.3774539912
2375000000 -0.4832170841 0.383230451
2376000000 -0.4809263883 0.3889713225
2377000000 -0.4785915825 0.3946762129
2378000000 -0.4762132649 0.4003447396
2379000000 -0.4737920372 0.4059765309
2380000000 -0.4713285042 0.4115712254
2381000000 -0.4688232736 0.4171284723
2382000000 -0.466276956 0.4226479316
2383000000 -0.4636901644 0.4281292735
2384000000 -0.4610635142 0.4335721793
2385000000 -0.4583976232 0.4389763404
2386000000 -0.4556931108 0.4443414591
2387000000 -0.4529505985 0.4496672483
2388000000 -0.4501707093 0.4549534313
2389000000 -0.4473540676 0.460199742
2390000000 -0.444501299 0.465405925
2391000000 -0.4416130301 0.4705717354
2392000000 -0.4386898884 0.4756969386
2393000000 -0.435732502 0.4807813107
2394000000 -0.4327414995 0.4858246382
2395000000 -0.4297175098 0.4908267179
2396000000 -0.4266611618 0.495787357
2397000000 -0.4235730843 0.5007063733
2398000000 -0.4204539059 0.5055835944
2399000000 -0.4173042549 0.5104188586
2400000000 -0.4141247586 0.5152120142
2401000000 -0.4109160438 0.5199629194
2402000000 -0.4076787362 0.5246714428
2403000000 -0.4044134604 0.529337463
2404000000 -0.4011208396 0.5339608683
2405000000 -0.3978014955 0.538541557
2406000000 -0.3944560482 0.5430794374
2407000000 -0.3910851161 0.5475744272
2408000000 -0.3876893153 0.5520264539
2409000000 -0.38426926 0.5564354547
2410000000 -0.380825562 0.5608013761
2411000000 -0.3773588307 0.5651241741
2412000000 -0.3738696727 0.569403814
2413000000 -0.3703586921 0.5736402704
2414000000 -0.3668264898 0.5778335269
2415000000 -0.3632736638 0.5819835763
2416000000 -0.3597008089 0.5860904202
2417000000 -0.3561085165 0.5901540691
2418000000 -0.3524973744 0.5941745423
2419000000 -0.3488679669 0.5981518677
2420000000 -0.3452208746 0.6020860816
2421000000 -0.3415566739 0.605977229
2422000000 -0.3378759375 0.6098253628
2423000000 -0.3341792338 0.6136305445
2424000000 -0.3304671269 0.6173928434
2425000000 -0.3267401766 0.6211123369
2426000000 -0.322998938 0.6247891102
2427000000 -0.3192439617 0.6284232561
2428000000 -0.3154757935 0.6320148753
2429000000 -0.3116949745 0.6355640756
2430000000 -0.3079020406 0.6390709724
2431000000 -0.3040975228 0.6425356881
2432000000 -0.3002819469 0.6459583525
2433000000 -0.2964558333 0.649339102
2434000000 -0.2926196972 0.6526780801
2435000000 -0.2887740484 0.6559754367
2436000000 -0.2849193909 0.6592313286
2437000000 -0.2810562234 0.6624459187
2438000000 -0.2771850387 0.6656193764
2439000000 -0.2733063238 0.6687518771
2440000000 -0.2694205598 0.6718436023
2441000000 -0.2655282222 0.6748947392
2442000000 -0.26162978 0.677905481
2443000000 -0.2577256965 0.6808760263
2444000000 -0.2538164287 0.6838065791
2445000000 -0.2499024275 0.6866973488
2446000000 -0.2459841373 0.6895485498
2447000000 -0.2420619967 0.6923604017
2448000000 -0.2381364373 0.6951331289
2449000000 -0.2342078848 0.6978669605
2450000000 -0.2302767582 0.7005621302
2451000000 -0.2263434701 0.703218876
2452000000 -0.2224084265 0.7058374404
2453000000 -0.2184720268 0.7084180699
2454000000 -0.214534664 0.710961015
2455000000 -0.2105967243 0.7134665302
2456000000 -0.2066585872 0.7159348736
2457000000 -0.2027206257 0.7183663067
2458000000 -0.1987832059 0.7207610948
2459000000 -0.1948466873 0.7231195061
2460000000 -0.1909114226 0.7254418121
2461000000 -0.1869777579 0.7277282874
2462000000 -0.1830460324 0.7299792092
2463000000 -0.1791165786 0.7321948576
2464000000 -0.1751897221 0.7343755152
2465000000 -0.171265782 0.736521467
2466000000 -0.1673450705 0.7386330004
2467000000 -0.1634278931 0.7407104047
2468000000 -0.1595145483 0.7427539715
2469000000 -0.1556053283 0.744763994
2470000000 -0.1517005182 0.7467407674
2471000000 -0.1478003966 0.7486845883
2472000000 -0.1439052355 0.7505957548
2473000000 -0.1400152999 0.7524745664
2474000000 -0.1361308485 0.7543213237
2475000000 -0.1322521333 0.7561363286
2476000000 -0.1283793996 0.7579198836
2477000000 -0.1245128863 0.7596722922
2478000000 -0.1206528257 0.7613938587
2479000000 -0.1167994437 0.7630848877
2480000000 -0.1129529597 0.7647456845
2481000000 -0.1091135867 0.7663765545
2482000000 -0.1052815313 0.7679778034
2483000000 -0.101456994 0.769549737
2484000000 -0.09764016892 0.771092661
2485000000 -0.09383124388 0.772606881
2486000000 -0.09003040066 0.7740927023
2487000000 -0.08623781494 0.7755504298
2488000000 -0.08245365631 0.776980368
2489000000 -0.07867808841 0.7783828206
2490000000 -0.07491126894 0.7797580909
2491000000 -0.07115334974 0.7811064811
2492000000 -0.06740447687 0.7824282927
2493000000 -0.06366479063 0.7837238261
2494000000 -0.05993442568 0.7849933805
2495000000 -0.05621351107 0.786237254
2496000000 -0.05250217034 0.7874557434
2497000000 -0.04880052156 0.7886491442
2498000000 -0.04510867742 0.7898177501
2499000000 -0.04142674533 0.7909618536
2500000000 -0.03775482745 0.7920817453
2501000000 -0.0340930208 0.7931777141
2502000000 -0.03044141733 0.7942500471
2503000000 -0.02680010399 0.7952990296
2504000000 -0.02316916283 0.7963249447
2505000000 -0.01954867108 0.7973280737
2506000000 -0.0159387012 0.7983086955
2507000000 -0.01233932101 0.799267087
2508000000 -0.008750593777 0.8002035229
2509000000 -0.005172578243 0.8011182752
2510000000 -0.00160532877 0.8020116139
2511000000 0.001951104592 0.8028838064
2512000000 0.00549667602 0.8037351175
2513000000 0.009031343823 0.8045658095
2514000000 0.01255507035 0.8053761421
2515000000 0.01606782192 0.8061663722
2516000000 0.01956956868 0.8069367542
2517000000 0.02306028459 0.8076875395
2518000000 0.02653994726 0.8084189768
2519000000 0.0300085379 0.8091313119
2520000000 0.03346604121 0.8098247876
2521000000 0.03691244528 0.8104996439
2522000000 0.04034774154 0.8111561178
2523000000 0.04377192461 0.8117944432
2524000000 0.04718499225 0.8124148511
2525000000 0.05058694522 0.8130175692
2526000000 0.05397778726 0.8136028222
2527000000 0.05735752493 0.8141708319
2528000000 0.06072616753 0.8147218166
2529000000 0.06408372706 0.8152559917
2530000000 0.06743021803 0.8157735692
2531000000 0.07076565748 0.816274758
2532000000 0.0740900648 0.8167597639
2533000000 0.07740346168 0.8172287893
2534000000 0.080705872 0.8176820333
2535000000 0.08399732178 0.8181196921
2536000000 0.08727783903 0.8185419583
2537000000 0.09054745369 0.8189490213
2538000000 0.09380619758 0.8193410675
2539000000 0.09705410423 0.8197182798
2540000000 0.1002912089 0.8200808379
2541000000 0.1035175483 0.8204289183
2542000000 0.1067331607 0.8207626943
2543000000 0.109938086 0.8210823358
2544000000 0.113132365 0.8213880097
2545000000 0.1163160401 0.8216798795
2546000000 0.1194891546 0.8219581056
2547000000 0.1226517532 0.8222228453
2548000000 0.1258038812 0.8224742527
2549000000 0.1289455851 0.8227124786
2550000000 0.1320769122 0.8229376709
2551000000 0.1351979104 0.8231499743
2552000000 0.1383086286 0.8233495304
2553000000 0.1414091159 0.8235364779
2554000000 0.1444994224 0.8237109523
2555000000 0.1475795982 0.8238730862
2556000000 0.1506496942 0.8240230094
2557000000 0.1537097614 0.8241608484
2558000000 0.156759851 0.8242867272
2559000000 0.1598000146 0.8244007667
2560000000 0.1628303039 0.8245030851
2561000000 0.1658507704 0.8245937977
2562000000 0.1688614659 0.8246730172
2563000000 0.171862442 0.8247408534
2564000000 0.1748537502 0.8247974138
2565000000 0.1778354418 0.8248428028
2566000000 0.1808075679 0.8248771225
2567000000 0.1837701792 0.8249004725
2568000000 0.1867233262 0.8249129499
2569000000 0.1896670589 0.8249146491
2570000000 0.1926014269 0.8249056624
2571000000 0.1955264793 0.8248860796
2572000000 0.1984422645 0.8248559883
2573000000 0.2013488306 0.8248154737
2574000000 0.2042462249 0.824764619
2575000000 0.2071344939 0.8247035051
2576000000 0.2100136835 0.8246322108
2577000000 0.212883839 0.8245508129
2578000000 0.2157450045 0.8244593863
2579000000 0.2185972237 0.8243580036
2580000000 0.2214405391 0.824246736
2581000000 0.2242749926 0.8241256526
2582000000 0.2271006247 0.8239948207
2583000000 0.2299174755 0.8238543058
2584000000 0.2327255837 0.8237041721
2585000000 0.2355249871 0.8235444817
2586000000 0.2383157226 0.8233752956
2587000000 0.2410978258 0.8231966728
2588000000 0.2438713314 0.8230086714
2589000000 0.2466362729 0.8228113476
2590000000 0.2493926826 0.8226047565
2591000000 0.2521405919 0.822388952
2592000000 0.2548800308 0.8221639867
2593000000 0.2576110282 0.8219299118
2594000000 0.2603336119 0.8216867778
2595000000 0.2630478085 0.8214346338
2596000000 0.2657536433 0.821173528
2597000000 0.2684511405 0.8209035078
2598000000 0.2711403229 0.8206246193
2599000000 0.2738212124 0.8203369083
2600000000 0.2764938294 0.8200404194
2601000000 0.2791581932 0.8197351966
2602000000 0.281814322 0.8194212832
2603000000 0.2844622324 0.8190987219
2604000000 0.2871019403 0.8187675548
2605000000 0.2897334599 0.8184278235
2606000000 0.2923568046 0.818079569
2607000000 0.2949719863 0.8177228321
2608000000 0.297579016 0.817357653
2609000000 0.3001779033 0.8169840718
2610000000 0.3027686567 0.8166021281
2611000000 0.3053512836 0.8162118613
2612000000 0.3079257902 0.8158133108
2613000000 0.3104921816 0.8154065156
2614000000 0.3130504619 0.8149915149
2615000000 0.3156006338 0.8145683476
2616000000 0.3181426994 0.8141370527
2617000000 0.3206766593 0.8136976693
2618000000 0.3232025133 0.8132502364
2619000000 0.3257202602 0.8127947933
2620000000 0.3282298979 0.8123313793
2621000000 0.3307314231 0.8118600341
2622000000 0.3332248316 0.8113807975
2623000000 0.3357101186 0.8108937096
2624000000 0.3381872781 0.8103988107
2625000000 0.3406563033 0.8098961417
2626000000 0.3431171867 0.8093857437
2627000000 0.34556992 0.8088676581
2628000000 0.3480144939 0.808341927
2629000000 0.3504508986 0.8078085929
2630000000 0.3528791237 0.8072676986
2631000000 0.3552991577 0.8067192878
2632000000 0.3577109889 0.8061634043
2633000000 0.3601146048 0.8056000928
2634000000 0.3625099923 0.8050293987
2635000000 0.3648971379 0.8044513676
2636000000 0.3672760274 0.8038660461
2637000000 0.3696466463 0.8032734815
2638000000 0.3720089797 0.8026737215
2639000000 0.3743630122 0.8020668148
2640000000 0.376708728 0.8014528106
2641000000 0.3790461111 0.800831759
2642000000 0.3813751452 0.8002037109
2643000000 0.3836958137 0.7995687177
2644000000 0.3860080999 0.7989268319
2645000000 0.3883119867 0.7982781066
2646000000 0.3906074571 0.7976225958
2647000000 0.3928944939 0.7969603543
2648000000 0.3951730799 0.7962914376
2649000000 0.3974431978 0.7956159021
2650000000 0.3997048305 0.7949338052
2651000000 0.4019579607 0.7942452048
2652000000 0.4042025714 0.79355016
2653000000 0.4064386456 0.7928487304
2654000000 0.4086661666 0.7921409766
2655000000 0.4108851178 0.7914269601
2656000000 0.413095483 0.7907067432
2657000000 0.415297246 0.7899803889
2658000000 0.4174903913 0.7892479611
2659000000 0.4196749034 0.7885095246
2660000000 0.4218507674 0.7877651449
2661000000 0.4240179688 0.7870148883
2662000000 0.4261764935 0.786258822
2663000000 0.428326328 0.7854970138
2664000000 0.4304674593 0.7847295326
2665000000 0.4325998749 0.7839564477
2666000000 0.4347235629 0.7831778292
2667000000 0.4368385123 0.7823937483
2668000000 0.4389447124 0.7816042763
2669000000 0.4410421534 0.7808094858
2670000000 0.4431308262 0.7800094497
2671000000 0.4452107224 0.7792042416
2672000000 0.4472818345 0.7783939359
2673000000 0.4493441559 0.7775786075
2674000000 0.4513976805 0.7767583319
2675000000 0.4534424034 0.7759331852
2676000000 0.4554783205 0.7751032442
2677000000 0.4575054287 0.7742685858
2678000000 0.4595237257 0.7734292879
2679000000 0.4615332104 0.7725854286
2680000000 0.4635338825 0.7717370865
2681000000 0.4655257428 0.7708843407
2682000000 0.4675087931 0.7700272705
2683000000 0.4694830366 0.7691659558
2684000000 0.4714484771 0.7683004768
2685000000 0.4734051198 0.7674309138
2686000000 0.4753529709 0.7665573477
2687000000 0.477292038 0.7656798593
2688000000 0.4792223296 0.76479853
2689000000 0.4811438554 0.763913441
2690000000 0.4830566265 0.7630246739
2691000000 0.4849606549 0.7621323104
2692000000 0.4868559541 0.7612364321
2693000000 0.4887425386 0.760337121
2694000000 0.4906204245 0.7594344587
2695000000 0.4924896286 0.7585285272
2696000000 0.4943501696 0.7576194081
2697000000 0.4962020669 0.7567071831
2698000000 0.4980453414 0.7557919338
2699000000 0.4998800155 0.7548737416
2700000000 0.5017061125 0.7539526876
