! PRELIMINARY bare PCB unless shell_eps > 0; see README.md
! L220 output ($1N324); all Gerber copper, components omitted (C216/L220/C217 not populated)
# Hz S RI R 50
2200000000 -0.3640790726 0.4606028419
2201000000 -0.3604258475 0.4669590484
2202000000 -0.3567227693 0.4732405338
2203000000 -0.352971529 0.4794471461
2204000000 -0.3491738035 0.4855787755
2205000000 -0.3453312553 0.4916353532
2206000000 -0.3414455306 0.4976168508
2207000000 -0.337518259 0.5035232795
2208000000 -0.3335510517 0.5093546889
2209000000 -0.3295455013 0.5151111665
2210000000 -0.3255031803 0.5207928365
2211000000 -0.3214256405 0.526399859
2212000000 -0.3173144119 0.5319324288
2213000000 -0.3131710021 0.5373907747
2214000000 -0.3089968952 0.5427751582
2215000000 -0.3047935515 0.5480858727
2216000000 -0.3005624064 0.5533232421
2217000000 -0.29630487 0.5584876201
2218000000 -0.2920223262 0.5635793889
2219000000 -0.2877161326 0.5685989583
2220000000 -0.2833876194 0.5735467642
2221000000 -0.2790380893 0.5784232679
2222000000 -0.2746688167 0.5832289547
2223000000 -0.2702810479 0.5879643331
2224000000 -0.265876 0.5926299331
2225000000 -0.2614548611 0.5972263056
2226000000 -0.2570187898 0.6017540212
2227000000 -0.2525689151 0.6062136686
2228000000 -0.2481063358 0.610605854
2229000000 -0.2436321211 0.6149311998
2230000000 -0.2391473096 0.6191903433
2231000000 -0.2346529101 0.6233839358
2232000000 -0.2301499007 0.6275126415
2233000000 -0.2256392294 0.631577136
2234000000 -0.2211218142 0.635578106
2235000000 -0.2165985425 0.6395162472
2236000000 -0.212070272 0.6433922642
2237000000 -0.2075378305 0.6472068689
2238000000 -0.2030020158 0.6509607795
2239000000 -0.1984635967 0.6546547195
2240000000 -0.1939233123 0.6582894172
2241000000 -0.1893818731 0.6618656038
2242000000 -0.184839961 0.6653840133
2243000000 -0.1802982293 0.6688453809
2244000000 -0.1757573038 0.6722504427
2245000000 -0.1712177827 0.6755999343
2246000000 -0.1666802371 0.6788945902
2247000000 -0.1621452115 0.682135143
2248000000 -0.1576132245 0.6853223222
2249000000 -0.153084769 0.6884568539
2250000000 -0.1485603128 0.6915394598
2251000000 -0.1440402994 0.6945708566
2252000000 -0.1395251483 0.6975517549
2253000000 -0.1350152557 0.7004828592
2254000000 -0.1305109949 0.7033648665
2255000000 -0.1260127176 0.7061984663
2256000000 -0.1215207535 0.7089843398
2257000000 -0.1170354121 0.7117231591
2258000000 -0.1125569824 0.714415587
2259000000 -0.1080857341 0.7170622765
2260000000 -0.1036219182 0.7196638702
2261000000 -0.09916576773 0.7222209998
2262000000 -0.09471749836 0.7247342858
2263000000 -0.09027730915 0.7272043375
2264000000 -0.08584538329 0.7296317519
2265000000 -0.08142188883 0.7320171139
2266000000 -0.07700697939 0.7343609961
2267000000 -0.07260079488 0.7366639583
2268000000 -0.06820346223 0.7389265474
2269000000 -0.06381509614 0.7411492972
2270000000 -0.05943579977 0.7433327282
2271000000 -0.05506566546 0.7454773477
2272000000 -0.05070477548 0.7475836493
2273000000 -0.04635320269 0.7496521134
2274000000 -0.04201101129 0.7516832066
2275000000 -0.03767825747 0.7536773821
2276000000 -0.03335499011 0.7556350795
2277000000 -0.02904125147 0.757556725
2278000000 -0.02473707783 0.7594427313
2279000000 -0.02044250015 0.7612934978
2280000000 -0.0161575447 0.7631094109
2281000000 -0.01188223373 0.7648908439
2282000000 -0.007616585983 0.7666381571
2283000000 -0.003360617396 0.7683516983
2284000000 0.0008856583941 0.7700318028
2285000000 0.00512222946 0.7716787938
2286000000 0.009349085047 0.7732929825
2287000000 0.01356621505 0.7748746684
2288000000 0.01777360949 0.7764241397
2289000000 0.02197125807 0.7779416735
2290000000 0.02615914965 0.7794275362
2291000000 0.03033727186 0.7808819837
2292000000 0.0345056106 0.7823052621
2293000000 0.03866414973 0.7836976077
2294000000 0.0428128706 0.7850592475
2295000000 0.04695175174 0.7863903996
2296000000 0.05108076851 0.7876912739
2297000000 0.05519989275 0.7889620718
2298000000 0.05930909256 0.7902029874
2299000000 0.06340833195 0.7914142075
2300000000 0.06749757062 0.792595912
2301000000 0.07157676376 0.7937482746
2302000000 0.0756458618 0.794871463
2303000000 0.07970481028 0.7959656396
2304000000 0.08375354963 0.7970309616
2305000000 0.08779201509 0.7980675819
2306000000 0.09182013657 0.7990756491
2307000000 0.09583783857 0.8000553081
2308000000 0.09984504008 0.8010067009
2309000000 0.1038416546 0.8019299664
2310000000 0.10782759 0.8028252414
2311000000 0.1118027486 0.8036926608
2312000000 0.1157670273 0.8045323579
2313000000 0.1197203173 0.8053444652
2314000000 0.1236625045 0.8061291145
2315000000 0.1275934692 0.8068864372
2316000000 0.1315130866 0.8076165654
2317000000 0.1354212267 0.8083196313
2318000000 0.1393177543 0.8089957684
2319000000 0.1432025295 0.8096451114
2320000000 0.1470754075 0.8102677969
2321000000 0.150936239 0.8108639634
2322000000 0.1547848703 0.8114337519
2323000000 0.1586211435 0.8119773062
2324000000 0.1624448968 0.8124947728
2325000000 0.1662559648 0.812986302
2326000000 0.1700541784 0.8134520476
2327000000 0.1738393655 0.8138921669
2328000000 0.177611351 0.814306822
2329000000 0.1813699571 0.8146961788
2330000000 0.1851150037 0.8150604081
2331000000 0.1888463085 0.8153996854
2332000000 0.1925636877 0.8157141913
2333000000 0.1962669558 0.8160041114
2334000000 0.1999559262 0.8162696368
2335000000 0.2036304117 0.8165109637
2336000000 0.2072902243 0.8167282944
2337000000 0.2109351761 0.8169218363
2338000000 0.2145650793 0.817091803
2339000000 0.2181797466 0.8172384136
2340000000 0.2217789916 0.8173618934
2341000000 0.2253626291 0.8174624732
2342000000 0.2289304753 0.8175403901
2343000000 0.2324823485 0.8175958868
2344000000 0.236018069 0.8176292122
2345000000 0.2395374598 0.8176406208
2346000000 0.2430403466 0.8176303729
2347000000 0.2465265585 0.8175987349
2348000000 0.2499959279 0.8175459784
2349000000 0.2534482911 0.8174723809
2350000000 0.2568834887 0.8173782252
2351000000 0.2603013655 0.8172637994
2352000000 0.2637017712 0.8171293968
2353000000 0.2670845604 0.8169753157
2354000000 0.2704495931 0.8168018594
2355000000 0.2737967349 0.8166093356
2356000000 0.277125857 0.8163980566
2357000000 0.2804368369 0.816168339
2358000000 0.2837295583 0.8159205034
2359000000 0.2870039116 0.8156548742
2360000000 0.2902597938 0.8153717793
2361000000 0.2934971089 0.8150715499
2362000000 0.2967157681 0.8147545204
2363000000 0.2999156898 0.814421028
2364000000 0.3030968001 0.8140714121
2365000000 0.3062590326 0.8137060146
2366000000 0.3094023287 0.8133251793
2367000000 0.3125266378 0.8129292516
2368000000 0.3156319172 0.8125185781
2369000000 0.3187181325 0.8120935066
2370000000 0.3217852573 0.8116543855
2371000000 0.3248332737 0.8112015637
2372000000 0.3278621718 0.8107353901
2373000000 0.3308719504 0.8102562133
2374000000 0.3338626164 0.8097643814
2375000000 0.3368341854 0.8092602418
2376000000 0.3397866811 0.8087441403
2377000000 0.3427201357 0.8082164215
2378000000 0.3456345897 0.8076774281
2379000000 0.3485300921 0.8071275004
2380000000 0.3514066997 0.8065669765
2381000000 0.3542644778 0.8059961915
2382000000 0.3571034996 0.8054154776
2383000000 0.3599238464 0.8048251635
2384000000 0.362725607 0.804225574
2385000000 0.3655088782 0.8036170303
2386000000 0.3682737644 0.802999849
2387000000 0.3710203771 0.8023743422
2388000000 0.3737488354 0.8017408172
2389000000 0.376459265 0.8010995762
2390000000 0.379151799 0.800450916
2391000000 0.3818265767 0.7997951278
2392000000 0.3844837441 0.799132497
2393000000 0.3871234533 0.7984633028
2394000000 0.3897458626 0.7977878182
2395000000 0.3923511357 0.7971063097
2396000000 0.394939442 0.7964190371
2397000000 0.3975109563 0.7957262531
2398000000 0.4000658581 0.7950282036
2399000000 0.4026043318 0.794325127
2400000000 0.4051265661 0.7936172547
2401000000 0.4076327538 0.7929048101
2402000000 0.4101230917 0.7921880093
2403000000 0.4125977801 0.7914670605
2404000000 0.4150570225 0.7907421639
2405000000 0.4175010254 0.7900135119
2406000000 0.419929998 0.7892812888
2407000000 0.4223441517 0.7885456709
2408000000 0.4247437001 0.7878068262
2409000000 0.4271288582 0.7870649146
2410000000 0.4294998428 0.7863200877
2411000000 0.4318568716 0.7855724889
2412000000 0.434200163 0.7848222534
2413000000 0.436529936 0.7840695083
2414000000 0.4388464097 0.7833143724
2415000000 0.4411498031 0.7825569564
2416000000 0.4434403346 0.7817973628
2417000000 0.445718222 0.7810356864
2418000000 0.447983682 0.7802720137
2419000000 0.45023693 0.7795064236
2420000000 0.4524781796 0.7787389873
2421000000 0.4547076427 0.7779697681
2422000000 0.4569255289 0.7771988222
2423000000 0.4591320453 0.776426198
2424000000 0.4613273963 0.7756519372
2425000000 0.4635117834 0.7748760741
2426000000 0.4656854048 0.7740986361
2427000000 0.4678484552 0.7733196443
2428000000 0.4700011257 0.7725391128
2429000000 0.4721436033 0.7717570497
2430000000 0.4742760711 0.770973457
2431000000 0.4763987076 0.7701883307
2432000000 0.4785116869 0.7694016611
2433000000 0.4806151785 0.7686134333
2434000000 0.4827093467 0.767823627
2435000000 0.484794351 0.767032217
2436000000 0.4868703456 0.7662391734
2437000000 0.4889374793 0.7654444619
2438000000 0.4909958956 0.7646480439
2439000000 0.4930457322 0.7638498769
2440000000 0.4950871212 0.7630499149
2441000000 0.4971201889 0.7622481083
2442000000 0.4991450557 0.7614444044
2443000000 0.5011618361 0.7606387478
2444000000 0.5031706385 0.7598310805
2445000000 0.5051715654 0.759021342
2446000000 0.5071647131 0.7582094699
2447000000 0.5091501717 0.7573954003
2448000000 0.5111280255 0.7565790674
2449000000 0.5130983524 0.7557604046
2450000000 0.5150612242 0.7549393442
2451000000 0.5170167069 0.7541158178
2452000000 0.5189648601 0.7532897568
2453000000 0.5209057376 0.7524610924
2454000000 0.5228393874 0.751629756
2455000000 0.5247658514 0.7507956794
2456000000 0.5266851658 0.749958795
2457000000 0.5285973612 0.7491190364
2458000000 0.5305024624 0.7482763379
2459000000 0.5324004891 0.7474306357
2460000000 0.5342914552 0.7465818673
2461000000 0.5361753697 0.7457299722
2462000000 0.5380522365 0.744874892
2463000000 0.5399220544 0.7440165706
2464000000 0.5417848176 0.7431549543
2465000000 0.5436405156 0.7422899922
2466000000 0.5454891335 0.7414216363
2467000000 0.5473306521 0.7405498415
2468000000 0.5491650483 0.7396745662
2469000000 0.5509922949 0.7387957718
2470000000 0.5528123611 0.7379134237
2471000000 0.5546252129 0.7370274907
2472000000 0.5564308126 0.7361379455
2473000000 0.5582291198 0.7352447646
2474000000 0.5600200912 0.7343479288
2475000000 0.5618036808 0.733447423
2476000000 0.5635798404 0.732543236
2477000000 0.5653485195 0.7316353614
2478000000 0.5671096657 0.7307237969
2479000000 0.5688632252 0.7298085447
2480000000 0.5706091423 0.7288896116
2481000000 0.5723473604 0.7279670087
2482000000 0.5740778219 0.727040752
2483000000 0.5758004685 0.7261108617
2484000000 0.5775152412 0.7251773628
2485000000 0.579222081 0.7242402848
2486000000 0.5809209286 0.7232996619
2487000000 0.5826117251 0.7223555326
2488000000 0.5842944119 0.72140794
2489000000 0.5859689311 0.7204569318
2490000000 0.5876352257 0.7195025597
2491000000 0.5892932398 0.7185448801
2492000000 0.5909429187 0.7175839534
2493000000 0.5925842093 0.7166198444
2494000000 0.5942170602 0.7156526216
2495000000 0.5958414218 0.7146823579
2496000000 0.5974572469 0.7137091296
2497000000 0.5990644902 0.712733017
2498000000 0.6006631092 0.711754104
2499000000 0.6022530639 0.7107724779
2500000000 0.6038343172 0.7097882292
2501000000 0.6054068348 0.7088014517
2502000000 0.6069705857 0.7078122422
2503000000 0.6085255422 0.7068207003
2504000000 0.6100716798 0.7058269283
2505000000 0.6116089778 0.7048310311
2506000000 0.6131374188 0.7038331156
2507000000 0.6146569896 0.7028332912
2508000000 0.6161676804 0.701831669
2509000000 0.6176694858 0.700828362
2510000000 0.6191624041 0.6998234847
2511000000 0.6206464378 0.6988171529
2512000000 0.6221215937 0.6978094836
2513000000 0.6235878827 0.6968005948
2514000000 0.6250453199 0.6957906052
2515000000 0.626493925 0.6947796341
2516000000 0.6279337216 0.693767801
2517000000 0.6293647381 0.6927552256
2518000000 0.6307870068 0.6917420275
2519000000 0.6322005648 0.690728326
2520000000 0.6336054532 0.68971424
2521000000 0.6350017176 0.6886998875
2522000000 0.6363894076 0.6876853858
2523000000 0.6377685775 0.6866708509
2524000000 0.6391392852 0.6856563976
2525000000 0.6405015934 0.6846421393
2526000000 0.6418555682 0.6836281875
2527000000 0.6432012801 0.6826146518
2528000000 0.6445388033 0.68160164
2529000000 0.645868216 0.6805892573
2530000000 0.6471895998 0.6795776068
2531000000 0.6485030401 0.6785667889
2532000000 0.6498086257 0.677556901
2533000000 0.6511064488 0.676548038
2534000000 0.6523966047 0.6755402914
2535000000 0.6536791918 0.6745337497
2536000000 0.6549543116 0.6735284979
2537000000 0.6562220681 0.6725246175
2538000000 0.6574825682 0.6715221867
2539000000 0.6587359209 0.6705212795
2540000000 0.6599822379 0.6695219665
2541000000 0.6612216329 0.6685243141
2542000000 0.6624542212 0.6675283847
2543000000 0.6636801204 0.6665342367
2544000000 0.6648994494 0.6655419242
2545000000 0.6661123285 0.6645514972
2546000000 0.6673188792 0.6635630012
2547000000 0.6685192241 0.6625764775
2548000000 0.6697134866 0.6615919628
2549000000 0.6709017908 0.6606094895
2550000000 0.6720842612 0.6596290855
2551000000 0.6732610223 0.6586507742
2552000000 0.6744321991 0.6576745746
2553000000 0.6755979162 0.6567005012
2554000000 0.6767582977 0.6557285639
2555000000 0.6779134676 0.6547587682
2556000000 0.6790635487 0.6537911153
2557000000 0.6802086633 0.652825602
2558000000 0.6813489323 0.6518622206
2559000000 0.6824844754 0.6509009593
2560000000 0.6836154109 0.6499418019
2561000000 0.6847418553 0.6489847283
2562000000 0.6858639233 0.6480297142
2563000000 0.6869817279 0.6470767313
2564000000 0.6880953794 0.6461257474
2565000000 0.6892049862 0.6451767267
2566000000 0.690310654 0.6442296295
2567000000 0.6914124859 0.6432844127
2568000000 0.6925105822 0.6423410297
2569000000 0.6936050404 0.6413994307
2570000000 0.6946959547 0.6404595626
2571000000 0.6957834163 0.6395213695
2572000000 0.696867513 0.6385847922
2573000000 0.6979483291 0.6376497693
2574000000 0.6990259456 0.6367162365
2575000000 0.7001004395 0.6357841272
2576000000 0.7011718844 0.6348533725
2577000000 0.7022403499 0.6339239016
2578000000 0.7033059018 0.6329956416
2579000000 0.7043686018 0.632068518
2580000000 0.7054285077 0.6311424547
2581000000 0.7064856733 0.6302173744
2582000000 0.7075401479 0.6292931983
2583000000 0.7085919772 0.6283698471
2584000000 0.7096412022 0.6274472401
2585000000 0.7106878599 0.6265252965
2586000000 0.7117319833 0.6256039349
2587000000 0.7127736007 0.6246830735
2588000000 0.7138127366 0.6237626306
2589000000 0.7148494112 0.6228425246
2590000000 0.7158836403 0.6219226743
2591000000 0.7169154358 0.6210029988
2592000000 0.7179448055 0.6200834182
2593000000 0.7189717529 0.6191638531
2594000000 0.7199962778 0.6182442253
2595000000 0.7210183758 0.617324458
2596000000 0.7220380388 0.6164044754
2597000000 0.7230552548 0.6154842037
2598000000 0.7240700081 0.6145635704
2599000000 0.7250822795 0.6136425051
2600000000 0.7260920462 0.6127209395
2601000000 0.727099282 0.6117988072
2602000000 0.7281039574 0.6108760445
2603000000 0.7291060397 0.6099525898
2604000000 0.7301054932 0.6090283843
2605000000 0.7311022793 0.6081033719
2606000000 0.7320963565 0.6071774995
2607000000 0.7330876809 0.6062507165
2608000000 0.7340762057 0.6053229759
2609000000 0.7350618822 0.6043942336
2610000000 0.7360446593 0.6034644488
2611000000 0.7370244839 0.602533584
2612000000 0.738001301 0.6016016052
2613000000 0.7389750539 0.600668482
2614000000 0.7399456844 0.5997341873
2615000000 0.740913133 0.598798698
2616000000 0.7418773389 0.5978619943
2617000000 0.7428382404 0.5969240603
2618000000 0.7437957748 0.5959848839
2619000000 0.744749879 0.5950444567
2620000000 0.7457004893 0.5941027739
2621000000 0.7466475416 0.5931598349
2622000000 0.7475909717 0.5922156425
2623000000 0.7485307156 0.5912702035
2624000000 0.7494667095 0.5903235285
2625000000 0.7503988899 0.5893756317
2626000000 0.7513271939 0.5884265311
2627000000 0.7522515596 0.5874762483
2628000000 0.7531719256 0.5865248087
2629000000 0.754088232 0.5855722411
2630000000 0.7550004201 0.5846185779
2631000000 0.7559084323 0.5836638548
2632000000 0.7568122129 0.582708111
2633000000 0.7577117078 0.5817513889
2634000000 0.758606865 0.5807937343
2635000000 0.7594976342 0.5798351956
2636000000 0.7603839675 0.5788758248
2637000000 0.7612658193 0.5779156762
2638000000 0.7621431463 0.5769548072
2639000000 0.7630159078 0.5759932777
2640000000 0.763884066 0.5750311502
2641000000 0.7647475857 0.5740684895
2642000000 0.7656064345 0.5731053626
2643000000 0.7664605833 0.5721418386
2644000000 0.7673100058 0.5711779886
2645000000 0.768154679 0.5702138855
2646000000 0.7689945833 0.5692496037
2647000000 0.7698297021 0.5682852193
2648000000 0.7706600226 0.5673208095
2649000000 0.7714855351 0.5663564528
2650000000 0.7723062336 0.5653922286
2651000000 0.7731221156 0.5644282173
2652000000 0.7739331821 0.5634644997
2653000000 0.7747394379 0.5625011572
2654000000 0.7755408912 0.5615382716
2655000000 0.7763375539 0.5605759248
2656000000 0.7771294416 0.5596141985
2657000000 0.7779165734 0.5586531744
2658000000 0.7786989723 0.5576929338
2659000000 0.7794766645 0.5567335574
2660000000 0.78024968 0.5557751253
2661000000 0.7810180524 0.5548177164
2662000000 0.7817818185 0.553861409
2663000000 0.7825410188 0.55290628
2664000000 0.7832956971 0.5519524047
2665000000 0.7840459004 0.5509998574
2666000000 0.7847916791 0.5500487102
2667000000 0.7855330865 0.5490990337
2668000000 0.7862701793 0.5481508965
2669000000 0.787003017 0.5472043648
2670000000 0.7877316618 0.546259503
2671000000 0.788456179 0.5453163727
2672000000 0.7891766363 0.5443750334
2673000000 0.7898931041 0.5434355415
2674000000 0.790605655 0.542497951
2675000000 0.7913143641 0.5415623129
2676000000 0.7920193085 0.5406286754
2677000000 0.7927205675 0.5396970834
2678000000 0.7934182219 0.5387675787
2679000000 0.7941123547 0.5378402
2680000000 0.79480305 0.5369149827
2681000000 0.7954903937 0.5359919586
2682000000 0.7961744728 0.5350711561
2683000000 0.7968553753 0.5341526004
2684000000 0.7975331902 0.5332363126
2685000000 0.7982080075 0.5323223108
2686000000 0.7988799175 0.531410609
2687000000 0.799549011 0.5305012179
2688000000 0.8002153793 0.5295941441
2689000000 0.8008791135 0.5286893909
2690000000 0.8015403049 0.5277869579
2691000000 0.8021990443 0.5268868406
2692000000 0.8028554224 0.5259890313
2693000000 0.8035095291 0.5250935185
2694000000 0.8041614537 0.524200287
2695000000 0.8048112845 0.5233093179
2696000000 0.8054591089 0.5224205891
2697000000 0.8061050128 0.5215340748
2698000000 0.8067490809 0.5206497456
2699000000 0.8073913965 0.5197675691
2700000000 0.8080320409 0.5188875094
