! PRELIMINARY bare PCB unless shell_eps > 0; see README.md
! L220 output ($1N324); all Gerber copper, components omitted (C216/L220/C217 not populated)
# Hz S RI R 50
2200000000 -0.3916610948 0.001937324755
2201000000 -0.3935372786 0.01016238018
2202000000 -0.3953062429 0.01840034446
2203000000 -0.3969679631 0.02664935668
2204000000 -0.398522454 0.03490755901
2205000000 -0.3999697699 0.04317309768
2206000000 -0.401310004 0.05144412391
2207000000 -0.4025432884 0.05971879486
2208000000 -0.4036697942 0.06799527455
2209000000 -0.4046897305 0.07627173477
2210000000 -0.4056033448 0.08454635604
2211000000 -0.4064109225 0.09281732844
2212000000 -0.4071127865 0.1010828526
2213000000 -0.4077092968 0.1093411404
2214000000 -0.4082008504 0.1175904162
2215000000 -0.4085878807 0.1258289172
2216000000 -0.4088708571 0.1340548948
2217000000 -0.4090502846 0.142266615
2218000000 -0.4091267034 0.1504623596
2219000000 -0.4091006884 0.1586404268
2220000000 -0.4089728485 0.1667991318
2221000000 -0.4087438267 0.1749368081
2222000000 -0.4084142987 0.1830518077
2223000000 -0.407984973 0.1911425024
2224000000 -0.4074565901 0.199207284
2225000000 -0.406829922 0.2072445653
2226000000 -0.4061057714 0.2152527809
2227000000 -0.4052849714 0.2232303876
2228000000 -0.4043683844 0.2311758652
2229000000 -0.4033569021 0.2390877171
2230000000 -0.4022514441 0.2469644712
2231000000 -0.4010529577 0.2548046798
2232000000 -0.3997624172 0.2626069212
2233000000 -0.398380823 0.2703697992
2234000000 -0.3969092008 0.2780919444
2235000000 -0.3953486011 0.2857720145
2236000000 -0.3937000986 0.2934086946
2237000000 -0.3919647908 0.3010006981
2238000000 -0.390143798 0.3085467666
2239000000 -0.3882382619 0.3160456708
2240000000 -0.3862493453 0.3234962108
2241000000 -0.384178231 0.3308972163
2242000000 -0.382026121 0.3382475473
2243000000 -0.3797942359 0.3455460941
2244000000 -0.3774838139 0.3527917779
2245000000 -0.3750961101 0.3599835508
2246000000 -0.3726323957 0.3671203965
2247000000 -0.3700939568 0.3742013301
2248000000 -0.3674820942 0.3812253988
2249000000 -0.3647981219 0.3881916816
2250000000 -0.3620433669 0.3950992898
2251000000 -0.3592191678 0.4019473674
2252000000 -0.3563268744 0.4087350905
2253000000 -0.3533678464 0.4154616682
2254000000 -0.3503434531 0.4221263422
2255000000 -0.3472550721 0.4287283871
2256000000 -0.3441040886 0.4352671104
2257000000 -0.3408918948 0.4417418523
2258000000 -0.3376198888 0.4481519863
2259000000 -0.3342894736 0.4544969184
2260000000 -0.3309020568 0.4607760877
2261000000 -0.3274590494 0.466988966
2262000000 -0.323961865 0.4731350579
2263000000 -0.3204119191 0.4792139005
2264000000 -0.3168106283 0.4852250633
2265000000 -0.3131594094 0.4911681484
2266000000 -0.3094596787 0.4970427898
2267000000 -0.305712851 0.5028486536
2268000000 -0.3019203393 0.5085854376
2269000000 -0.2980835536 0.5142528713
2270000000 -0.2942039003 0.5198507151
2271000000 -0.2902827813 0.525378761
2272000000 -0.2863215936 0.5308368311
2273000000 -0.2823217284 0.5362247785
2274000000 -0.2782845702 0.5415424861
2275000000 -0.2742114965 0.5467898665
2276000000 -0.2701038766 0.5519668621
2277000000 -0.2659630715 0.5570734438
2278000000 -0.2617904327 0.5621096116
2279000000 -0.2575873021 0.5670753936
2280000000 -0.2533550108 0.5719708457
2281000000 -0.249094879 0.5767960512
2282000000 -0.2448082149 0.5815511203
2283000000 -0.2404963145 0.5862361899
2284000000 -0.236160461 0.5908514226
2285000000 -0.2318019239 0.5953970067
2286000000 -0.227421959 0.5998731554
2287000000 -0.2230218074 0.6042801066
2288000000 -0.2186026951 0.608618122
2289000000 -0.2141658327 0.6128874866
2290000000 -0.2097124148 0.6170885087
2291000000 -0.2052436197 0.6212215186
2292000000 -0.2007606085 0.6252868685
2293000000 -0.1962645252 0.6292849317
2294000000 -0.1917564962 0.6332161023
2295000000 -0.1872376296 0.6370807942
2296000000 -0.1827090152 0.6408794408
2297000000 -0.1781717239 0.6446124945
2298000000 -0.1736268077 0.6482804257
2299000000 -0.1690752989 0.6518837225
2300000000 -0.1645182102 0.65542289
2301000000 -0.1599565344 0.6588984496
2302000000 -0.1553912439 0.6623109385
2303000000 -0.1508232908 0.6656609089
2304000000 -0.1462536063 0.6689489277
2305000000 -0.1416831009 0.6721755754
2306000000 -0.137112664 0.6753414458
2307000000 -0.1325431637 0.6784471453
2308000000 -0.1279754467 0.6814932923
2309000000 -0.1234103384 0.6844805163
2310000000 -0.1188486424 0.6874094577
2311000000 -0.1142911409 0.6902807667
2312000000 -0.1097385939 0.6930951031
2313000000 -0.1051917401 0.6958531354
2314000000 -0.100651296 0.6985555402
2315000000 -0.09611795653 0.7012030016
2316000000 -0.09159239457 0.7037962107
2317000000 -0.0870752613 0.7063358649
2318000000 -0.08256718607 0.7088226671
2319000000 -0.07806877653 0.7112573255
2320000000 -0.07358061864 0.7136405527
2321000000 -0.06910327681 0.715973065
2322000000 -0.06463729397 0.7182555821
2323000000 -0.06018319171 0.7204888267
2324000000 -0.05574147038 0.7226735232
2325000000 -0.05131260927 0.7248103977
2326000000 -0.04689706676 0.7269001776
2327000000 -0.04249528051 0.7289435905
2328000000 -0.03810766762 0.7309413639
2329000000 -0.03373462488 0.7328942249
2330000000 -0.02937652895 0.7348028994
2331000000 -0.0250337366 0.7366681117
2332000000 -0.02070658499 0.738490584
2333000000 -0.01639539186 0.7402710357
2334000000 -0.01210045586 0.7420101835
2335000000 -0.007822056807 0.7437087402
2336000000 -0.003560455958 0.7453674148
2337000000 0.000684103661 0.7469869118
2338000000 0.004911396959 0.7485679308
2339000000 0.009121216451 0.7501111663
2340000000 0.01331337193 0.7516173067
2341000000 0.01748769014 0.7530870348
2342000000 0.0216440144 0.7545210266
2343000000 0.02578220426 0.7559199514
2344000000 0.02990213516 0.7572844714
2345000000 0.03400369803 0.758615241
2346000000 0.0380867989 0.7599129071
2347000000 0.04215135858 0.7611781081
2348000000 0.0461973122 0.7624114743
2349000000 0.05022460883 0.763613627
2350000000 0.05423321113 0.7647851787
2351000000 0.05822309487 0.7659267323
2352000000 0.06219424858 0.7670388814
2353000000 0.06614667311 0.7681222101
2354000000 0.07008038122 0.769177292
2355000000 0.07399539717 0.7702046911
2356000000 0.07789175627 0.7712049607
2357000000 0.08176950452 0.7721786436
2358000000 0.0856286981 0.7731262722
2359000000 0.08946940304 0.7740483678
2360000000 0.09329169471 0.7749454409
2361000000 0.09709565744 0.7758179909
2362000000 0.1008813841 0.776666506
2363000000 0.1046489757 0.7774914633
2364000000 0.1083985408 0.7782933283
2365000000 0.1121301955 0.7790725554
2366000000 0.1158440623 0.7798295873
2367000000 0.1195402706 0.7805648554
2368000000 0.1232189554 0.7812787795
2369000000 0.1268802577 0.7819717679
2370000000 0.1305243234 0.7826442176
2371000000 0.1341513032 0.7832965137
2372000000 0.1377613523 0.7839290301
2373000000 0.14135463 0.7845421292
2374000000 0.1449312989 0.7851361622
2375000000 0.1484915252 0.7857114686
2376000000 0.1520354775 0.7862683769
2377000000 0.1555633274 0.7868072045
2378000000 0.159075248 0.7873282575
2379000000 0.1625714148 0.7878318313
2380000000 0.1660520041 0.7883182102
2381000000 0.1695171937 0.788787668
2382000000 0.1729671617 0.7892404677
2383000000 0.176402087 0.789676862
2384000000 0.1798221483 0.7900970932
2385000000 0.183227524 0.7905013936
2386000000 0.1866183921 0.7908899854
2387000000 0.1899949295 0.791263081
2388000000 0.1933573123 0.7916208834
2389000000 0.1967057147 0.7919635861
2390000000 0.2000403097 0.7922913732
2391000000 0.2033612678 0.79260442
2392000000 0.2066687576 0.792902893
2393000000 0.2099629451 0.7931869501
2394000000 0.2132439938 0.7934567408
2395000000 0.2165120639 0.7937124065
2396000000 0.2197673128 0.7939540809
2397000000 0.2230098942 0.7941818897
2398000000 0.2262399586 0.7943959516
2399000000 0.2294576524 0.7945963779
2400000000 0.2326631185 0.794783273
2401000000 0.2358564953 0.7949567347
2402000000 0.2390379173 0.7951168546
2403000000 0.2422075144 0.7952637178
2404000000 0.245365412 0.7953974039
2405000000 0.248511731 0.7955179867
2406000000 0.2516465874 0.7956255346
2407000000 0.2547700924 0.7957201112
2408000000 0.2578823523 0.795801775
2409000000 0.2609834681 0.7958705801
2410000000 0.2640735361 0.7959265764
2411000000 0.267152647 0.7959698097
2412000000 0.2702208865 0.796000322
2413000000 0.273278335 0.7960181521
2414000000 0.2763250675 0.7960233354
2415000000 0.2793611537 0.7960159043
2416000000 0.282386658 0.7959958887
2417000000 0.2854016393 0.7959633159
2418000000 0.2884061511 0.7959182113
2419000000 0.2914002418 0.7958605982
2420000000 0.2943839541 0.7957904982
2421000000 0.2973573258 0.7957079316
2422000000 0.3003203891 0.7956129176
2423000000 0.303273171 0.7955054744
2424000000 0.3062156935 0.7953856196
2425000000 0.3091479733 0.7952533701
2426000000 0.3120700222 0.7951087429
2427000000 0.3149818468 0.7949517548
2428000000 0.3178834492 0.794782423
2429000000 0.3207748263 0.7946007649
2430000000 0.3236559705 0.7944067988
2431000000 0.3265268695 0.7942005437
2432000000 0.3293875067 0.7939820196
2433000000 0.3322378609 0.793751248
2434000000 0.3350779068 0.7935082514
2435000000 0.3379076149 0.7932530544
2436000000 0.3407269518 0.7929856829
2437000000 0.3435358802 0.792706165
2438000000 0.346334359 0.792414531
2439000000 0.3491223436 0.7921108131
2440000000 0.3518997862 0.7917950462
2441000000 0.3546666355 0.7914672677
2442000000 0.3574228371 0.7911275175
2443000000 0.3601683339 0.7907758385
2444000000 0.3629030658 0.7904122763
2445000000 0.3656269702 0.7900368797
2446000000 0.3683399822 0.7896497005
2447000000 0.3710420346 0.7892507938
2448000000 0.3737330579 0.7888402179
2449000000 0.376412981 0.7884180347
2450000000 0.3790817311 0.7879843092
2451000000 0.3817392338 0.7875391103
2452000000 0.3843854132 0.7870825102
2453000000 0.3870201925 0.7866145848
2454000000 0.3896434939 0.7861354138
2455000000 0.3922552386 0.7856450805
2456000000 0.3948553475 0.7851436719
2457000000 0.3974437408 0.7846312787
2458000000 0.4000203387 0.7841079956
2459000000 0.4025850612 0.7835739209
2460000000 0.4051378286 0.7830291566
2461000000 0.4076785613 0.7824738087
2462000000 0.4102071803 0.7819079868
2463000000 0.4127236074 0.7813318041
2464000000 0.415227765 0.7807453777
2465000000 0.4177195768 0.7801488284
2466000000 0.4201989673 0.7795422804
2467000000 0.4226658628 0.7789258615
2468000000 0.4251201908 0.7782997032
2469000000 0.4275618807 0.7776639404
2470000000 0.4299908636 0.7770187111
2471000000 0.4324070727 0.7763641571
2472000000 0.4348104433 0.775700423
2473000000 0.437200913 0.7750276568
2474000000 0.4395784219 0.7743460095
2475000000 0.4419429126 0.7736556349
2476000000 0.4442943304 0.77295669
2477000000 0.4466326235 0.7722493343
2478000000 0.4489577432 0.77153373
2479000000 0.4512696437 0.7708100418
2480000000 0.4535682826 0.770078437
2481000000 0.4558536205 0.7693390851
2482000000 0.4581256217 0.7685921576
2483000000 0.4603842541 0.7678378284
2484000000 0.4626294889 0.767076273
2485000000 0.4648613013 0.7663076687
2486000000 0.4670796701 0.7655321947
2487000000 0.4692845782 0.7647500314
2488000000 0.4714760122 0.7639613607
2489000000 0.4736539629 0.7631663658
2490000000 0.475818425 0.7623652306
2491000000 0.4779693974 0.7615581403
2492000000 0.4801068833 0.7607452807
2493000000 0.4822308899 0.7599268382
2494000000 0.4843414288 0.7591029995
2495000000 0.4864385158 0.758273952
2496000000 0.4885221712 0.7574398828
2497000000 0.4905924193 0.7566009792
2498000000 0.4926492889 0.7557574283
2499000000 0.4946928133 0.7549094169
2500000000 0.49672303 0.7540571312
2501000000 0.4987399807 0.7532007569
2502000000 0.5007437116 0.7523404788
2503000000 0.5027342732 0.7514764807
2504000000 0.5047117204 0.7506089455
2505000000 0.506676112 0.7497380545
2506000000 0.5086275113 0.7488639881
2507000000 0.5105659859 0.7479869246
2508000000 0.5124916071 0.7471070408
2509000000 0.5144044507 0.7462245119
2510000000 0.5163045963 0.7453395107
2511000000 0.5181921276 0.7444522081
2512000000 0.5200671321 0.7435627727
2513000000 0.5219297012 0.7426713706
2514000000 0.5237799299 0.7417781655
2515000000 0.5256179171 0.7408833182
2516000000 0.5274437651 0.7399869871
2517000000 0.5292575798 0.7390893273
2518000000 0.5310594703 0.7381904909
2519000000 0.5328495493 0.7372906272
2520000000 0.5346279324 0.7363898818
2521000000 0.5363947385 0.7354883972
2522000000 0.5381500893 0.7345863123
2523000000 0.5398941096 0.7336837625
2524000000 0.5416269266 0.7327808795
2525000000 0.5433486704 0.7318777913
2526000000 0.5450594734 0.7309746219
2527000000 0.5467594706 0.7300714917
2528000000 0.548448799 0.7291685167
2529000000 0.5501275978 0.7282658091
2530000000 0.5517960082 0.727363477
2531000000 0.5534541731 0.7264616241
2532000000 0.5551022374 0.72556035
2533000000 0.5567403471 0.72465975
2534000000 0.55836865 0.7237599149
2535000000 0.559987295 0.7228609314
2536000000 0.5615964321 0.7219628815
2537000000 0.5631962122 0.7210658429
2538000000 0.5647867874 0.7201698888
2539000000 0.56636831 0.7192750879
2540000000 0.5679409332 0.7183815044
2541000000 0.5695048103 0.717489198
2542000000 0.571060095 0.7165982238
2543000000 0.5726069411 0.7157086326
2544000000 0.5741455023 0.7148204704
2545000000 0.5756759321 0.713933779
2546000000 0.5771983835 0.7130485955
2547000000 0.5787130094 0.7121649527
2548000000 0.5802199616 0.7112828788
2549000000 0.5817193914 0.7104023978
2550000000 0.5832114492 0.7095235293
2551000000 0.584696284 0.7086462885
2552000000 0.586174044 0.7077706864
2553000000 0.5876448758 0.7068967299
2554000000 0.5891089247 0.7060244216
2555000000 0.5905663342 0.70515376
2556000000 0.5920172464 0.7042847398
2557000000 0.5934618011 0.7034173516
2558000000 0.5949001364 0.702551582
2559000000 0.5963323884 0.701687414
2560000000 0.5977586906 0.700824827
2561000000 0.5991791746 0.6999637964
2562000000 0.6005939692 0.6991042945
2563000000 0.6020032008 0.6982462899
2564000000 0.6034069933 0.6973897479
2565000000 0.6048054675 0.6965346307
2566000000 0.6061987417 0.6956808972
2567000000 0.607586931 0.6948285035
2568000000 0.6089701477 0.6939774026
2569000000 0.6103485008 0.6931275448
2570000000 0.6117220961 0.6922788778
2571000000 0.6130910363 0.6914313466
2572000000 0.6144554206 0.6905848939
2573000000 0.6158153449 0.68973946
2574000000 0.6171709017 0.6888949832
2575000000 0.6185221797 0.6880513995
2576000000 0.6198692643 0.6872086432
2577000000 0.6212122372 0.6863666468
2578000000 0.6225511764 0.685525341
2579000000 0.6238861563 0.684684655
2580000000 0.6252172473 0.6838445169
2581000000 0.6265445165 0.6830048531
2582000000 0.6278680267 0.6821655894
2583000000 0.6291878372 0.6813266501
2584000000 0.6305040035 0.6804879591
2585000000 0.6318165772 0.6796494394
2586000000 0.6331256059 0.6788110135
2587000000 0.6344311337 0.6779726034
2588000000 0.6357332008 0.6771341309
2589000000 0.6370318433 0.6762955177
2590000000 0.6383270938 0.6754566852
2591000000 0.639618981 0.6746175553
2592000000 0.64090753 0.67377805
2593000000 0.642192762 0.6729380915
2594000000 0.6434746947 0.6720976028
2595000000 0.6447533418 0.6712565074
2596000000 0.6460287139 0.6704147297
2597000000 0.6473008177 0.6695721947
2598000000 0.6485696565 0.6687288288
2599000000 0.6498352301 0.6678845592
2600000000 0.651097535 0.6670393147
2601000000 0.6523565644 0.6661930252
2602000000 0.6536123081 0.6653456221
2603000000 0.6548647529 0.6644970386
2604000000 0.6561138824 0.6636472095
2605000000 0.6573596772 0.6627960714
2606000000 0.6586021149 0.6619435628
2607000000 0.6598411704 0.6610896243
2608000000 0.6610768158 0.6602341984
2609000000 0.6623090203 0.65937723
2610000000 0.6635377508 0.6585186663
2611000000 0.6647629717 0.6576584567
2612000000 0.665984645 0.6567965533
2613000000 0.6672027303 0.6559329103
2614000000 0.6684171852 0.6550674851
2615000000 0.6696279652 0.6542002371
2616000000 0.6708350239 0.6533311291
2617000000 0.672038313 0.6524601261
2618000000 0.6732377826 0.6515871963
2619000000 0.674433381 0.6507123107
2620000000 0.6756250554 0.6498354432
2621000000 0.6768127512 0.6489565708
2622000000 0.6779964129 0.6480756734
2623000000 0.6791759837 0.647192734
2624000000 0.6803514059 0.6463077388
2625000000 0.681522621 0.6454206769
2626000000 0.6826895696 0.6445315406
2627000000 0.6838521918 0.6436403255
2628000000 0.6850104271 0.6427470301
2629000000 0.6861642148 0.6418516563
2630000000 0.6873134938 0.640954209
2631000000 0.688458203 0.6400546964
2632000000 0.6895982811 0.6391531297
2633000000 0.6907336673 0.6382495233
2634000000 0.6918643006 0.6373438948
2635000000 0.6929901207 0.6364362648
2636000000 0.6941110677 0.6355266571
2637000000 0.6952270823 0.6346150983
2638000000 0.6963381059 0.6337016183
2639000000 0.6974440808 0.6327862498
2640000000 0.6985449503 0.6318690285
2641000000 0.6996406585 0.6309499931
2642000000 0.700731151 0.6300291848
2643000000 0.7018163747 0.6291066479
2644000000 0.7028962776 0.6281824293
2645000000 0.7039708094 0.6272565786
2646000000 0.7050399214 0.626329148
2647000000 0.7061035666 0.6254001921
2648000000 0.7071616997 0.6244697681
2649000000 0.7082142774 0.6235379356
2650000000 0.7092612584 0.6226047563
2651000000 0.7103026033 0.6216702944
2652000000 0.7113382749 0.6207346159
2653000000 0.7123682384 0.6197977892
2654000000 0.7133924612 0.6188598844
2655000000 0.7144109129 0.6179209735
2656000000 0.7154235657 0.6169811303
2657000000 0.7164303944 0.6160404302
2658000000 0.7174313763 0.6150989504
2659000000 0.7184264913 0.6141567692
2660000000 0.7194157219 0.6132139664
2661000000 0.7203990536 0.6122706232
2662000000 0.7213764743 0.6113268218
2663000000 0.7223479751 0.6103826455
2664000000 0.7233135498 0.6094381783
2665000000 0.7242731949 0.6084935053
2666000000 0.7252269103 0.6075487121
2667000000 0.7261746983 0.606603885
2668000000 0.7271165647 0.6056591107
2669000000 0.7280525177 0.6047144763
2670000000 0.7289825691 0.603770069
2671000000 0.7299067332 0.6028259764
2672000000 0.7308250277 0.6018822857
2673000000 0.731737473 0.6009390844
2674000000 0.7326440928 0.5999964594
2675000000 0.7335449134 0.5990544976
2676000000 0.7344399645 0.5981132852
2677000000 0.7353292785 0.5971729079
2678000000 0.7362128908 0.5962334507
2679000000 0.7370908397 0.5952949979
2680000000 0.7379631665 0.5943576327
2681000000 0.7388299152 0.5934214375
2682000000 0.7396911325 0.5924864933
2683000000 0.7405468683 0.5915528803
2684000000 0.7413971748 0.5906206768
2685000000 0.7422421069 0.5896899601
2686000000 0.7430817225 0.5887608058
2687000000 0.7439160815 0.5878332878
2688000000 0.7447452468 0.5869074784
2689000000 0.7455692834 0.585983448
2690000000 0.7463882588 0.585061265
2691000000 0.7472022427 0.5841409958
2692000000 0.7480113072 0.5832227049
2693000000 0.7488155263 0.5823064545
2694000000 0.7496149763 0.5813923043
2695000000 0.7504097352 0.580480312
2696000000 0.7511998831 0.5795705328
2697000000 0.7519855018 0.5786630193
2698000000 0.7527666749 0.5777578217
2699000000 0.7535434875 0.5768549874
2700000000 0.7543160262 0.5759545613
