! PRELIMINARY bare PCB unless shell_eps > 0; see README.md
! L220 output ($1N324); all Gerber copper, components omitted (C216/L220/C217 not populated)
# Hz S RI R 50
2200000000 0.3437266092 -0.5639398818
2201000000 0.3384281102 -0.5651497305
2202000000 0.3331006647 -0.5663190786
2203000000 0.3277446321 -0.5674473823
2204000000 0.3223603822 -0.5685341012
2205000000 0.3169482944 -0.5695786988
2206000000 0.3115087585 -0.5705806427
2207000000 0.3060421739 -0.5715394045
2208000000 0.3005489502 -0.5724544603
2209000000 0.2950295065 -0.5733252909
2210000000 0.289484272 -0.5741513816
2211000000 0.2839136853 -0.574932223
2212000000 0.2783181949 -0.5756673105
2213000000 0.2726982587 -0.576356145
2214000000 0.2670543441 -0.5769982329
2215000000 0.261386928 -0.5775930864
2216000000 0.2556964965 -0.5781402235
2217000000 0.2499835451 -0.5786391681
2218000000 0.2442485784 -0.5790894506
2219000000 0.23849211 -0.5794906078
2220000000 0.2327146625 -0.5798421829
2221000000 0.2269167674 -0.580143726
2222000000 0.2210989649 -0.5803947943
2223000000 0.215261804 -0.5805949518
2224000000 0.209405842 -0.5807437701
2225000000 0.2035316448 -0.5808408281
2226000000 0.1976397867 -0.5808857123
2227000000 0.1917308499 -0.5808780171
2228000000 0.185805425 -0.5808173447
2229000000 0.1798641102 -0.5807033055
2230000000 0.1739075119 -0.5805355183
2231000000 0.1679362439 -0.58031361
2232000000 0.1619509275 -0.5800372163
2233000000 0.1559521917 -0.5797059816
2234000000 0.1499406725 -0.5793195591
2235000000 0.1439170131 -0.5788776111
2236000000 0.1378818636 -0.578379809
2237000000 0.1318358811 -0.5778258335
2238000000 0.1257797291 -0.5772153746
2239000000 0.1197140779 -0.5765481322
2240000000 0.1136396039 -0.5758238155
2241000000 0.1075569897 -0.5750421438
2242000000 0.1014669241 -0.5742028463
2243000000 0.09537010167 -0.5733056621
2244000000 0.08926722253 -0.5723503407
2245000000 0.08315899246 -0.5713366417
2246000000 0.07704612253 -0.5702643353
2247000000 0.07092932898 -0.5691332022
2248000000 0.06480933302 -0.5679430335
2249000000 0.05868686067 -0.5666936314
2250000000 0.05256264256 -0.5653848085
2251000000 0.04643741376 -0.5640163887
2252000000 0.04031191358 -0.5625882068
2253000000 0.03418688541 -0.5611001085
2254000000 0.02806307648 -0.5595519511
2255000000 0.02194123771 -0.5579436027
2256000000 0.01582212352 -0.5562749432
2257000000 0.00970649159 -0.5545458635
2258000000 0.003595102704 -0.5527562663
2259000000 -0.002511279459 -0.5509060658
2260000000 -0.008611888527 -0.5489951877
2261000000 -0.01470595564 -0.5470235696
2262000000 -0.02079270963 -0.5449911605
2263000000 -0.02687137725 -0.5428979216
2264000000 -0.03294118339 -0.5407438256
2265000000 -0.03900135121 -0.5385288573
2266000000 -0.04505110245 -0.5362530133
2267000000 -0.05108965755 -0.5339163022
2268000000 -0.05711623589 -0.5315187446
2269000000 -0.06313005601 -0.5290603732
2270000000 -0.06913033581 -0.5265412325
2271000000 -0.07511629274 -0.5239613794
2272000000 -0.08108714405 -0.5213208826
2273000000 -0.08704210694 -0.5186198231
2274000000 -0.09298039884 -0.5158582938
2275000000 -0.09890123758 -0.5130364
2276000000 -0.1048038416 -0.5101542588
2277000000 -0.1106874301 -0.5072119996
2278000000 -0.1165512235 -0.5042097638
2279000000 -0.1223944433 -0.5011477051
2280000000 -0.1282163126 -0.498025989
2281000000 -0.1340160559 -0.4948447933
2282000000 -0.1397928999 -0.4916043076
2283000000 -0.1455460733 -0.4883047337
2284000000 -0.1512748069 -0.4849462853
2285000000 -0.1569783342 -0.4815291881
2286000000 -0.1626558915 -0.4780536797
2287000000 -0.1683067178 -0.4745200094
2288000000 -0.1739300553 -0.4709284386
2289000000 -0.1795251496 -0.4672792403
2290000000 -0.1850912497 -0.4635726993
2291000000 -0.1906276085 -0.4598091119
2292000000 -0.1961334828 -0.4559887862
2293000000 -0.2016081334 -0.4521120417
2294000000 -0.2070508257 -0.4481792094
2295000000 -0.2124608294 -0.4441906318
2296000000 -0.217837419 -0.4401466625
2297000000 -0.2231798741 -0.4360476666
2298000000 -0.2284874792 -0.4318940202
2299000000 -0.2337595242 -0.4276861104
2300000000 -0.2389953046 -0.4234243354
2301000000 -0.2441941215 -0.4191091043
2302000000 -0.2493552819 -0.4147408369
2303000000 -0.2544780989 -0.4103199638
2304000000 -0.2595618918 -0.405846926
2305000000 -0.2646059865 -0.4013221751
2306000000 -0.2696097154 -0.3967461732
2307000000 -0.2745724176 -0.3921193924
2308000000 -0.2794934393 -0.3874423149
2309000000 -0.2843721339 -0.3827154333
2310000000 -0.289207862 -0.3779392497
2311000000 -0.2939999916 -0.3731142761
2312000000 -0.2987478987 -0.3682410341
2313000000 -0.3034509666 -0.3633200548
2314000000 -0.308108587 -0.3583518789
2315000000 -0.3127201596 -0.3533370558
2316000000 -0.3172850923 -0.3482761445
2317000000 -0.3218028015 -0.3431697128
2318000000 -0.3262727123 -0.338018337
2319000000 -0.3306942583 -0.3328226024
2320000000 -0.3350668821 -0.3275831026
2321000000 -0.3393900355 -0.3223004396
2322000000 -0.3436631791 -0.3169752236
2323000000 -0.3478857832 -0.3116080728
2324000000 -0.3520573272 -0.3061996131
2325000000 -0.3561773001 -0.3007504784
2326000000 -0.3602452008 -0.2952613097
2327000000 -0.3642605379 -0.2897327559
2328000000 -0.3682228297 -0.2841654725
2329000000 -0.372131605 -0.2785601224
2330000000 -0.3759864023 -0.2729173752
2331000000 -0.3797867707 -0.2672379072
2332000000 -0.3835322695 -0.2615224011
2333000000 -0.3872224686 -0.2557715459
2334000000 -0.3908569482 -0.2499860368
2335000000 -0.3944352996 -0.244166575
2336000000 -0.3979571245 -0.2383138671
2337000000 -0.4014220357 -0.2324286255
2338000000 -0.4048296568 -0.226511568
2339000000 -0.4081796224 -0.2205634175
2340000000 -0.4114715784 -0.2145849019
2341000000 -0.4147051816 -0.2085767539
2342000000 -0.4178801003 -0.2025397106
2343000000 -0.420996014 -0.1964745138
2344000000 -0.4240526135 -0.1903819094
2345000000 -0.4270496013 -0.1842626471
2346000000 -0.4299866911 -0.1781174807
2347000000 -0.4328636084 -0.1719471675
2348000000 -0.4356800901 -0.1657524682
2349000000 -0.4384358849 -0.1595341465
2350000000 -0.441130753 -0.1532929695
2351000000 -0.4437644666 -0.1470297069
2352000000 -0.4463368094 -0.1407451308
2353000000 -0.448847577 -0.1344400161
2354000000 -0.4512965769 -0.1281151395
2355000000 -0.4536836283 -0.1217712801
2356000000 -0.4560085623 -0.1154092184
2357000000 -0.458271222 -0.1090297368
2358000000 -0.4604714621 -0.1026336187
2359000000 -0.4626091495 -0.09622164913
2360000000 -0.4646841629 -0.08979461377
2361000000 -0.4666963927 -0.08335329919
2362000000 -0.4686457416 -0.0768984925
2363000000 -0.4705321238 -0.07043098121
2364000000 -0.4723554655 -0.06395155294
2365000000 -0.4741157049 -0.05746099532
2366000000 -0.475812792 -0.05096009571
2367000000 -0.4774466884 -0.04444964104
2368000000 -0.4790173678 -0.03793041759
2369000000 -0.4805248155 -0.03140321082
2370000000 -0.4819690285 -0.02486880513
2371000000 -0.4833500157 -0.0183279837
2372000000 -0.4846677974 -0.01178152827
2373000000 -0.4859224057 -0.005230218972
2374000000 -0.4871138843 0.001325165911
2375000000 -0.4882422882 0.007883850092
2376000000 -0.4893076841 0.01444505949
2377000000 -0.49031015 0.02100802243
2378000000 -0.4912497752 0.02757196981
2379000000 -0.4921266604 0.03413613532
2380000000 -0.4929409174 0.04069975557
2381000000 -0.4936926692 0.04726207036
2382000000 -0.49438205 0.05382232279
2383000000 -0.4950092047 0.06037975948
2384000000 -0.4955742893 0.06693363071
2385000000 -0.4960774707 0.07348319068
2386000000 -0.4965189264 0.08002769757
2387000000 -0.4968988445 0.08656641381
2388000000 -0.497217424 0.09309860622
2389000000 -0.4974748738 0.09962354616
2390000000 -0.4976714137 0.1061405097
2391000000 -0.4978072735 0.1126487779
2392000000 -0.4978826932 0.1191476367
2393000000 -0.4978979229 0.1256363774
2394000000 -0.4978532224 0.1321142967
2395000000 -0.4977488618 0.1385806966
2396000000 -0.4975851204 0.1450348851
2397000000 -0.4973622874 0.1514761758
2398000000 -0.4970806614 0.1579038883
2399000000 -0.4967405504 0.1643173486
2400000000 -0.4963422715 0.1707158887
2401000000 -0.4958861509 0.177098847
2402000000 -0.495372524 0.1834655687
2403000000 -0.4948017347 0.1898154055
2404000000 -0.4941741358 0.1961477159
2405000000 -0.4934900886 0.2024618656
2406000000 -0.4927499629 0.2087572271
2407000000 -0.4919541366 0.2150331804
2408000000 -0.4911029959 0.2212891125
2409000000 -0.490196935 0.2275244182
2410000000 -0.4892363558 0.2337384996
2411000000 -0.488221668 0.2399307665
2412000000 -0.4871532887 0.2461006368
2413000000 -0.4860316427 0.2522475359
2414000000 -0.4848571617 0.2583708975
2415000000 -0.4836302847 0.2644701633
2416000000 -0.4823514574 0.2705447831
2417000000 -0.4810211326 0.2765942151
2418000000 -0.4796397694 0.282617926
2419000000 -0.4782078334 0.2886153907
2420000000 -0.4767257967 0.294586093
2421000000 -0.4751941372 0.3005295251
2422000000 -0.473613339 0.3064451881
2423000000 -0.4719838918 0.3123325916
2424000000 -0.4703062911 0.3181912545
2425000000 -0.4685810378 0.3240207043
2426000000 -0.4668086379 0.3298204776
2427000000 -0.4649896028 0.3355901202
2428000000 -0.4631244486 0.3413291869
2429000000 -0.4612136963 0.3470372418
2430000000 -0.4592578715 0.352713858
2431000000 -0.4572575042 0.3583586181
2432000000 -0.4552131286 0.363971114
2433000000 -0.4531252832 0.369550947
2434000000 -0.4509945102 0.3750977277
2435000000 -0.4488213555 0.3806110762
2436000000 -0.4466063688 0.3860906222
2437000000 -0.444350103 0.3915360048
2438000000 -0.4420531142 0.3969468726
2439000000 -0.4397159617 0.4023228839
2440000000 -0.4373392076 0.4076637064
2441000000 -0.4349234166 0.4129690176
2442000000 -0.4324691562 0.4182385044
2443000000 -0.4299769958 0.4234718635
2444000000 -0.4274475074 0.4286688012
2445000000 -0.4248812647 0.4338290333
2446000000 -0.4222788436 0.4389522853
2447000000 -0.4196408212 0.4440382924
2448000000 -0.4169677765 0.4490867993
2449000000 -0.4142602896 0.4540975604
2450000000 -0.4115189418 0.4590703397
2451000000 -0.4087443154 0.4640049106
2452000000 -0.4059369935 0.4689010564
2453000000 -0.4030975598 0.4737585695
2454000000 -0.4002265986 0.4785772522
2455000000 -0.3973246944 0.4833569161
2456000000 -0.394392432 0.4880973824
2457000000 -0.3914303961 0.4927984814
2458000000 -0.3884391712 0.4974600531
2459000000 -0.3854193414 0.5020819467
2460000000 -0.3823714906 0.5066640208
2461000000 -0.3792962017 0.5112061431
2462000000 -0.3761940571 0.5157081906
2463000000 -0.373065638 0.5201700495
2464000000 -0.3699115247 0.524591615
2465000000 -0.366732296 0.5289727913
2466000000 -0.3635285296 0.5333134917
2467000000 -0.3603008013 0.5376136385
2468000000 -0.3570496853 0.5418731626
2469000000 -0.3537757542 0.5460920038
2470000000 -0.3504795782 0.5502701108
2471000000 -0.3471617256 0.5544074406
2472000000 -0.3438227624 0.558503959
2473000000 -0.3404632522 0.5625596404
2474000000 -0.3370837559 0.5665744672
2475000000 -0.3336848318 0.5705484306
2476000000 -0.3302670355 0.5744815298
2477000000 -0.3268309195 0.5783737721
2478000000 -0.3233770333 0.5822251731
2479000000 -0.3199059231 0.5860357562
2480000000 -0.3164181318 0.5898055528
2481000000 -0.312914199 0.5935346019
2482000000 -0.3093946605 0.5972229505
2483000000 -0.3058600486 0.600870653
2484000000 -0.3023108918 0.6044777714
2485000000 -0.2987477146 0.6080443749
2486000000 -0.2951710375 0.6115705403
2487000000 -0.2915813769 0.6150563514
2488000000 -0.2879792449 0.618501899
2489000000 -0.2843651494 0.6219072811
2490000000 -0.2807395937 0.6252726024
2491000000 -0.2771030768 0.6285979745
2492000000 -0.2734560928 0.6318835155
2493000000 -0.2697991312 0.6351293501
2494000000 -0.2661326769 0.6383356093
2495000000 -0.2624572095 0.6415024305
2496000000 -0.2587732039 0.6446299573
2497000000 -0.25508113 0.6477183393
2498000000 -0.2513814523 0.650767732
2499000000 -0.2476746302 0.6537782968
2500000000 -0.2439611178 0.6567502007
2501000000 -0.240241364 0.6596836164
2502000000 -0.2365158121 0.6625787218
2503000000 -0.2327848998 0.6654357005
2504000000 -0.2290490595 0.6682547409
2505000000 -0.2253087178 0.6710360367
2506000000 -0.2215642956 0.6737797865
2507000000 -0.2178162082 0.6764861936
2508000000 -0.2140648651 0.6791554662
2509000000 -0.2103106699 0.6817878169
2510000000 -0.2065540202 0.6843834626
2511000000 -0.2027953079 0.6869426249
2512000000 -0.1990349188 0.6894655292
2513000000 -0.1952732326 0.691952405
2514000000 -0.1915106233 0.6944034858
2515000000 -0.1877474585 0.696819009
2516000000 -0.1839840997 0.6991992153
2517000000 -0.1802209023 0.7015443493
2518000000 -0.1764582158 0.7038546586
2519000000 -0.1726963831 0.7061303944
2520000000 -0.1689357411 0.7083718108
2521000000 -0.1651766206 0.7105791651
2522000000 -0.1614193458 0.7127527172
2523000000 -0.157664235 0.71489273
2524000000 -0.1539116001 0.716999469
2525000000 -0.1501617467 0.7190732018
2526000000 -0.1464149742 0.7211141989
2527000000 -0.1426715756 0.7231227327
2528000000 -0.1389318378 0.7250990778
2529000000 -0.1351960412 0.7270435106
2530000000 -0.1314644602 0.7289563097
2531000000 -0.1277373628 0.730837755
2532000000 -0.1240150106 0.7326881284
2533000000 -0.1202976593 0.7345077131
2534000000 -0.1165855581 0.7362967935
2535000000 -0.1128789501 0.7380556554
2536000000 -0.1091780722 0.7397845859
2537000000 -0.1054831552 0.7414838727
2538000000 -0.1017944236 0.7431538046
2539000000 -0.09811209596 0.7447946712
2540000000 -0.09443638466 0.7464067626
2541000000 -0.09076749605 0.7479903695
2542000000 -0.08710563047 0.7495457831
2543000000 -0.08345098227 0.7510732946
2544000000 -0.07980373983 0.7525731958
2545000000 -0.07616408565 0.7540457783
2546000000 -0.07253219636 0.7554913337
2547000000 -0.06890824274 0.7569101536
2548000000 -0.06529238982 0.7583025292
2549000000 -0.06168479688 0.7596687515
2550000000 -0.05808561753 0.7610091108
2551000000 -0.05449499973 0.7623238972
2552000000 -0.05091308587 0.7636133999
2553000000 -0.04734001281 0.7648779074
2554000000 -0.04377591195 0.7661177074
2555000000 -0.04022090926 0.7673330867
2556000000 -0.03667512538 0.7685243308
2557000000 -0.03313867562 0.7696917245
2558000000 -0.0296116701 0.7708355511
2559000000 -0.02609421374 0.7719560927
2560000000 -0.02258640638 0.7730536298
2561000000 -0.01908834282 0.7741284418
2562000000 -0.01560011288 0.7751808063
2563000000 -0.01212180149 0.7762109992
2564000000 -0.008653488757 0.777219295
2565000000 -0.005195250025 0.7782059661
2566000000 -0.001747155955 0.7791712831
2567000000 0.001690727399 0.7801155148
2568000000 0.005118338519 0.7810389278
2569000000 0.008535620346 0.7819417869
2570000000 0.0119425202 0.7828243544
2571000000 0.0153389897 0.7836868906
2572000000 0.01872498471 0.7845296536
2573000000 0.02210046521 0.7853528989
2574000000 0.02546539526 0.7861568799
2575000000 0.02881974291 0.7869418474
2576000000 0.03216348009 0.7877080496
2577000000 0.03549658255 0.7884557323
2578000000 0.03881902981 0.7891851388
2579000000 0.04213080499 0.7898965094
2580000000 0.04543189482 0.7905900819
2581000000 0.04872228947 0.7912660914
2582000000 0.05200198255 0.7919247701
2583000000 0.05527097095 0.7925663475
2584000000 0.0585292548 0.79319105
2585000000 0.06177683735 0.7937991014
2586000000 0.06501372492 0.7943907222
2587000000 0.06823992679 0.7949661303
2588000000 0.07145545511 0.7955255404
2589000000 0.07466032485 0.796069164
2590000000 0.07785455364 0.79659721
2591000000 0.08103816176 0.7971098837
2592000000 0.08421117201 0.7976073877
2593000000 0.08737360963 0.7980899213
2594000000 0.09052550222 0.7985576807
2595000000 0.09366687965 0.7990108588
2596000000 0.09679777398 0.7994496456
2597000000 0.09991821935 0.7998742277
2598000000 0.1030282519 0.8002847886
2599000000 0.1061279098 0.8006815085
2600000000 0.1092172329 0.8010645646
2601000000 0.1122962629 0.8014341306
2602000000 0.1153650432 0.8017903773
2603000000 0.1184236186 0.802133472
2604000000 0.1214720358 0.8024635789
2605000000 0.1245103424 0.8027808591
2606000000 0.1275385878 0.8030854704
2607000000 0.1305568223 0.8033775673
2608000000 0.1335650977 0.8036573012
2609000000 0.1365634667 0.8039248204
2610000000 0.1395519831 0.8041802699
2611000000 0.1425307014 0.8044237917
2612000000 0.1454996774 0.8046555244
2613000000 0.1484589674 0.8048756038
2614000000 0.1514086283 0.8050841623
2615000000 0.1543487179 0.8052813295
2616000000 0.1572792945 0.8054672316
2617000000 0.1602004168 0.8056419921
2618000000 0.163112144 0.8058057312
2619000000 0.1660145355 0.8059585664
2620000000 0.1689076511 0.8061006121
2621000000 0.1717915509 0.8062319796
2622000000 0.1746662948 0.8063527775
2623000000 0.1775319432 0.8064631116
2624000000 0.1803885563 0.8065630847
2625000000 0.1832361941 0.8066527968
2626000000 0.1860749167 0.8067323452
2627000000 0.1889047839 0.8068018245
2628000000 0.1917258554 0.8068613265
2629000000 0.1945381905 0.8069109405
2630000000 0.197341848 0.8069507531
2631000000 0.2001368866 0.8069808482
2632000000 0.2029233642 0.8070013075
2633000000 0.2057013386 0.8070122099
2634000000 0.2084708665 0.807013632
2635000000 0.2112320043 0.8070056481
2636000000 0.2139848078 0.8069883299
2637000000 0.2167293319 0.806961747
2638000000 0.2194656307 0.8069259666
2639000000 0.2221937576 0.806881054
2640000000 0.2249137651 0.8068270719
2641000000 0.2276257049 0.8067640812
2642000000 0.2303296276 0.8066921408
2643000000 0.2330255829 0.8066113073
2644000000 0.2357136195 0.8065216356
2645000000 0.2383937851 0.8064231785
2646000000 0.2410661261 0.8063159872
2647000000 0.243730688 0.806200111
2648000000 0.2463875152 0.8060755974
2649000000 0.2490366506 0.8059424922
2650000000 0.2516781362 0.8058008397
2651000000 0.2543120127 0.8056506825
2652000000 0.2569383195 0.8054920618
2653000000 0.2595570947 0.8053250173
2654000000 0.2621683751 0.8051495872
2655000000 0.2647721963 0.8049658084
2656000000 0.2673685924 0.8047737165
2657000000 0.2699575961 0.804573346
2658000000 0.272539239 0.8043647301
2659000000 0.2751135511 0.8041479007
2660000000 0.2776805609 0.8039228889
2661000000 0.2802402958 0.8036897247
2662000000 0.2827927815 0.8034484372
2663000000 0.2853380425 0.8031990543
2664000000 0.2878761015 0.8029416035
2665000000 0.2904069803 0.8026761112
2666000000 0.2929306987 0.8024026031
2667000000 0.2954472753 0.8021211043
2668000000 0.2979567275 0.8018316393
2669000000 0.3004590708 0.8015342318
2670000000 0.3029543194 0.8012289053
2671000000 0.3054424864 0.8009156827
2672000000 0.3079235829 0.8005945863
2673000000 0.310397619 0.8002656384
2674000000 0.3128646031 0.7999288607
2675000000 0.3153245425 0.7995842747
2676000000 0.3177774428 0.7992319019
2677000000 0.3202233083 0.7988717633
2678000000 0.322662142 0.7985038801
2679000000 0.3250939454 0.7981282732
2680000000 0.3275187188 0.7977449638
2681000000 0.329936461 0.7973539729
2682000000 0.3323471697 0.7969553216
2683000000 0.3347508411 0.7965490311
2684000000 0.3371474703 0.796135123
2685000000 0.3395370508 0.795713619
2686000000 0.3419195754 0.7952845409
2687000000 0.3442950353 0.7948479111
2688000000 0.3466634206 0.7944037521
2689000000 0.3490247203 0.793952087
2690000000 0.3513789222 0.7934929392
2691000000 0.353726013 0.7930263326
2692000000 0.3560659784 0.7925522916
2693000000 0.358398803 0.7920708412
2694000000 0.3607244703 0.791582007
2695000000 0.3630429631 0.7910858152
2696000000 0.3653542628 0.7905822924
2697000000 0.3676583503 0.7900714664
2698000000 0.3699552053 0.7895533652
2699000000 0.3722448068 0.7890280179
2700000000 0.374527133 0.7884954543
