! PRELIMINARY bare PCB unless shell_eps > 0; see README.md
! L220 output ($1N324); all Gerber copper, components omitted (C216/L220/C217 not populated)
# Hz S RI R 50
2200000000 -0.05052249365 -0.5448385503
2201000000 -0.05668042132 -0.5425556204
2202000000 -0.06282727241 -0.5402106593
2203000000 -0.06896225415 -0.5378036805
2204000000 -0.07508457274 -0.5353347095
2205000000 -0.08119343354 -0.5328037844
2206000000 -0.08728804128 -0.5302109552
2207000000 -0.09336760027 -0.5275562842
2208000000 -0.09943131463 -0.524839846
2209000000 -0.1054783885 -0.5220617275
2210000000 -0.1115080262 -0.5192220279
2211000000 -0.1175194325 -0.5163208584
2212000000 -0.1235118129 -0.5133583429
2213000000 -0.1294843737 -0.5103346173
2214000000 -0.1354363222 -0.50724983
2215000000 -0.1413668672 -0.5041041414
2216000000 -0.1472752188 -0.5008977243
2217000000 -0.1531605888 -0.4976307638
2218000000 -0.1590221912 -0.4943034571
2219000000 -0.1648592418 -0.4909160137
2220000000 -0.170670959 -0.487468655
2221000000 -0.1764565638 -0.4839616149
2222000000 -0.1822152796 -0.4803951392
2223000000 -0.1879463332 -0.4767694856
2224000000 -0.1936489544 -0.473084924
2225000000 -0.1993223765 -0.4693417362
2226000000 -0.2049658363 -0.4655402159
2227000000 -0.2105785744 -0.4616806685
2228000000 -0.2161598356 -0.4577634114
2229000000 -0.2217088688 -0.4537887736
2230000000 -0.2272249273 -0.4497570956
2231000000 -0.2327072691 -0.4456687298
2232000000 -0.2381551569 -0.4415240397
2233000000 -0.2435678586 -0.4373234005
2234000000 -0.2489446474 -0.4330671987
2235000000 -0.2542848015 -0.4287558318
2236000000 -0.2595876052 -0.4243897088
2237000000 -0.2648523484 -0.4199692495
2238000000 -0.2700783269 -0.4154948847
2239000000 -0.2752648428 -0.410967056
2240000000 -0.2804112046 -0.406386216
2241000000 -0.2855167273 -0.4017528278
2242000000 -0.2905807327 -0.3970673648
2243000000 -0.2956025493 -0.3923303111
2244000000 -0.3005815131 -0.387542161
2245000000 -0.3055169671 -0.3827034189
2246000000 -0.3104082617 -0.3778145995
2247000000 -0.3152547551 -0.3728762271
2248000000 -0.3200558131 -0.3678888359
2249000000 -0.3248108097 -0.3628529699
2250000000 -0.3295191267 -0.3577691823
2251000000 -0.3341801546 -0.352638036
2252000000 -0.3387932918 -0.3474601029
2253000000 -0.3433579458 -0.3422359642
2254000000 -0.3478735326 -0.3369662098
2255000000 -0.352339477 -0.3316514384
2256000000 -0.356755213 -0.3262922576
2257000000 -0.3611201839 -0.3208892831
2258000000 -0.365433842 -0.3154431393
2259000000 -0.3696956493 -0.3099544584
2260000000 -0.3739050774 -0.3044238807
2261000000 -0.3780616075 -0.2988520544
2262000000 -0.3821647308 -0.2932396354
2263000000 -0.3862139484 -0.2875872868
2264000000 -0.3902087714 -0.2818956791
2265000000 -0.3941487215 -0.2761654903
2266000000 -0.3980333304 -0.2703974047
2267000000 -0.4018621402 -0.2645921139
2268000000 -0.405634704 -0.2587503159
2269000000 -0.4093505851 -0.252872715
2270000000 -0.4130093578 -0.2469600218
2271000000 -0.4166106073 -0.241012953
2272000000 -0.4201539297 -0.2350322311
2273000000 -0.423638932 -0.2290185841
2274000000 -0.4270652327 -0.2229727457
2275000000 -0.4304324612 -0.2168954547
2276000000 -0.4337402583 -0.2107874551
2277000000 -0.4369882764 -0.2046494955
2278000000 -0.440176179 -0.1984823295
2279000000 -0.4433036414 -0.192286715
2280000000 -0.4463703504 -0.1860634141
2281000000 -0.4493760044 -0.1798131933
2282000000 -0.4523203136 -0.1735368225
2283000000 -0.4552029999 -0.1672350758
2284000000 -0.4580237971 -0.1609087303
2285000000 -0.4607824509 -0.1545585666
2286000000 -0.4634787186 -0.1481853683
2287000000 -0.4661123699 -0.1417899219
2288000000 -0.4686831861 -0.1353730166
2289000000 -0.4711909608 -0.1289354438
2290000000 -0.4736354994 -0.1224779974
2291000000 -0.4760166195 -0.1160014732
2292000000 -0.4783341508 -0.1095066688
2293000000 -0.4805879351 -0.1029943835
2294000000 -0.4827778263 -0.096465418
2295000000 -0.4849036902 -0.08992057412
2296000000 -0.4869654052 -0.08336065474
2297000000 -0.4889628614 -0.0767864635
2298000000 -0.4908959612 -0.07019880462
2299000000 -0.4927646191 -0.06359848272
2300000000 -0.4945687618 -0.05698630255
2301000000 -0.4963083279 -0.05036306886
2302000000 -0.4979832682 -0.04372958613
2303000000 -0.4995935456 -0.03708665842
2304000000 -0.501139135 -0.0304350891
2305000000 -0.5026200232 -0.02377568074
2306000000 -0.504036209 -0.01710923482
2307000000 -0.5053877032 -0.01043655157
2308000000 -0.5066745285 -0.003758429779
2309000000 -0.5078967194 0.00292433343
2310000000 -0.5090543221 0.00961094278
2311000000 -0.5101473948 0.01630060504
2312000000 -0.5111760071 0.02299252924
2313000000 -0.5121402405 0.02968592682
2314000000 -0.513040188 0.03638001187
2315000000 -0.5138759539 0.04307400129
2316000000 -0.5146476542 0.04976711499
2317000000 -0.5153554163 0.05645857611
2318000000 -0.5159993785 0.06314761113
2319000000 -0.5165796909 0.06983345014
2320000000 -0.5170965142 0.07651532695
2321000000 -0.5175500205 0.08319247934
2322000000 -0.5179403927 0.08986414916
2323000000 -0.5182678246 0.09652958261
2324000000 -0.5185325208 0.1031880303
2325000000 -0.5187346966 0.1098387475
2326000000 -0.5188745779 0.1164809944
2327000000 -0.5189524009 0.1231140359
2328000000 -0.5189684124 0.1297371423
2329000000 -0.5189228694 0.1363495892
2330000000 -0.5188160388 0.1429506574
2331000000 -0.518648198 0.1495396338
2332000000 -0.5184196339 0.1561158107
2333000000 -0.5181306434 0.1626784865
2334000000 -0.5177815331 0.1692269656
2335000000 -0.5173726191 0.1757605589
2336000000 -0.5169042268 0.1822785833
2337000000 -0.516376691 0.1887803627
2338000000 -0.5157903558 0.1952652273
2339000000 -0.515145574 0.2017325144
2340000000 -0.5144427077 0.208181568
2341000000 -0.5136821273 0.2146117394
2342000000 -0.5128642122 0.221022387
2343000000 -0.51198935 0.2274128767
2344000000 -0.5110579368 0.2337825817
2345000000 -0.5100703767 0.2401308829
2346000000 -0.5090270819 0.246457169
2347000000 -0.5079284725 0.2527608362
2348000000 -0.5067749762 0.2590412891
2349000000 -0.5055670285 0.2652979401
2350000000 -0.5043050721 0.2715302096
2351000000 -0.5029895569 0.2777375267
2352000000 -0.5016209401 0.2839193286
2353000000 -0.5001996857 0.2900750608
2354000000 -0.4987262644 0.2962041778
2355000000 -0.4972011535 0.3023061423
2356000000 -0.495624837 0.3083804261
2357000000 -0.4939978048 0.3144265096
2358000000 -0.4923205532 0.3204438821
2359000000 -0.4905935842 0.3264320421
2360000000 -0.4888174056 0.3323904968
2361000000 -0.486992531 0.3383187628
2362000000 -0.4851194792 0.3442163659
2363000000 -0.4831987742 0.3500828409
2364000000 -0.4812309454 0.3559177323
2365000000 -0.4792165266 0.3617205935
2366000000 -0.4771560569 0.3674909878
2367000000 -0.4750500794 0.3732284877
2368000000 -0.472899142 0.3789326752
2369000000 -0.4707037965 0.3846031421
2370000000 -0.4684645989 0.3902394897
2371000000 -0.466182109 0.3958413288
2372000000 -0.4638568903 0.4014082801
2373000000 -0.4614895096 0.4069399739
2374000000 -0.4590805374 0.4124360503
2375000000 -0.4566305469 0.4178961591
2376000000 -0.4541401145 0.4233199599
2377000000 -0.4516098195 0.4287071221
2378000000 -0.4490402435 0.434057325
2379000000 -0.4464319708 0.4393702577
2380000000 -0.4437855877 0.444645619
2381000000 -0.4411016829 0.4498831177
2382000000 -0.4383808468 0.4550824724
2383000000 -0.4356236715 0.4602434114
2384000000 -0.4328307508 0.4653656729
2385000000 -0.4300026797 0.4704490052
2386000000 -0.4271400547 0.4754931659
2387000000 -0.424243473 0.4804979228
2388000000 -0.4213135328 0.4854630533
2389000000 -0.4183508332 0.4903883446
2390000000 -0.4153559735 0.4952735936
2391000000 -0.4123295536 0.5001186068
2392000000 -0.4092721735 0.5049232007
2393000000 -0.4061844333 0.509687201
2394000000 -0.4030669327 0.5144104433
2395000000 -0.3999202715 0.5190927727
2396000000 -0.3967450488 0.5237340436
2397000000 -0.393541863 0.5283341203
2398000000 -0.3903113119 0.532892876
2399000000 -0.3870539924 0.5374101937
2400000000 -0.3837705001 0.5418859655
2401000000 -0.3804614293 0.5463200927
2402000000 -0.3771273733 0.550712486
2403000000 -0.3737689234 0.5550630651
2404000000 -0.3703866693 0.5593717588
2405000000 -0.3669811991 0.5636385048
2406000000 -0.3635530986 0.5678632499
2407000000 -0.3601029515 0.5720459497
2408000000 -0.3566313394 0.5761865685
2409000000 -0.3531388411 0.5802850793
2410000000 -0.3496260333 0.5843414639
2411000000 -0.3460934897 0.5883557125
2412000000 -0.3425417811 0.5923278237
2413000000 -0.3389714755 0.5962578046
2414000000 -0.3353831377 0.6001456706
2415000000 -0.3317773293 0.6039914451
2416000000 -0.3281546086 0.6077951597
2417000000 -0.3245155302 0.6115568541
2418000000 -0.3208606453 0.6152765758
2419000000 -0.3171905013 0.6189543801
2420000000 -0.3135056418 0.62259033
2421000000 -0.3098066064 0.6261844961
2422000000 -0.3060939305 0.6297369565
2423000000 -0.3023681456 0.6332477968
2424000000 -0.2986297788 0.6367171097
2425000000 -0.2948793526 0.6401449952
2426000000 -0.2911173853 0.6435315602
2427000000 -0.2873443904 0.6468769187
2428000000 -0.2835608769 0.6501811915
2429000000 -0.2797673488 0.653444506
2430000000 -0.2759643052 0.6566669965
2431000000 -0.2721522406 0.6598488033
2432000000 -0.268331644 0.6629900735
2433000000 -0.2645029995 0.6660909602
2434000000 -0.2606667859 0.6691516227
2435000000 -0.2568234767 0.6721722263
2436000000 -0.2529735401 0.675152942
2437000000 -0.2491174388 0.6780939469
2438000000 -0.2452556298 0.6809954234
2439000000 -0.2413885648 0.6838575595
2440000000 -0.2375166898 0.6866805485
2441000000 -0.2336404447 0.6894645891
2442000000 -0.2297602642 0.692209885
2443000000 -0.2258765767 0.6949166448
2444000000 -0.221989805 0.6975850821
2445000000 -0.2181003657 0.7002154152
2446000000 -0.2142086696 0.7028078668
2447000000 -0.2103151214 0.7053626642
2448000000 -0.2064201198 0.7078800392
2449000000 -0.2025240571 0.7103602274
2450000000 -0.1986273198 0.7128034688
2451000000 -0.194730288 0.7152100071
2452000000 -0.1908333355 0.71758009
2453000000 -0.18693683 0.7199139687
2454000000 -0.1830411329 0.722211898
2455000000 -0.1791465991 0.7244741361
2456000000 -0.1752535775 0.7267009445
2457000000 -0.1713624102 0.7288925877
2458000000 -0.1674734334 0.7310493334
2459000000 -0.1635869766 0.7331714519
2460000000 -0.159703363 0.7352592167
2461000000 -0.1558229094 0.7373129033
2462000000 -0.1519459262 0.7393327903
2463000000 -0.1480727173 0.7413191582
2464000000 -0.1442035803 0.74327229
2465000000 -0.1403388063 0.7451924705
2466000000 -0.13647868 0.7470799868
2467000000 -0.1326234798 0.7489351277
2468000000 -0.1287734775 0.7507581836
2469000000 -0.1249289388 0.7525494466
2470000000 -0.1210901228 0.7543092104
2471000000 -0.1172572823 0.7560377698
2472000000 -0.1134306638 0.7577354209
2473000000 -0.1096105075 0.7594024609
2474000000 -0.1057970472 0.7610391881
2475000000 -0.1019905105 0.7626459014
2476000000 -0.09819111887 0.7642229007
2477000000 -0.09439908743 0.7657704864
2478000000 -0.09061462517 0.7672889593
2479000000 -0.08683793493 0.7687786208
2480000000 -0.08306921346 0.7702397724
2481000000 -0.07930865143 0.7716727159
2482000000 -0.07555643348 0.7730777531
2483000000 -0.07181273828 0.7744551857
2484000000 -0.06807773855 0.7758053152
2485000000 -0.06435160111 0.777128443
2486000000 -0.06063448695 0.7784248699
2487000000 -0.05692655126 0.7796948965
2488000000 -0.05322794346 0.7809388225
2489000000 -0.04953880732 0.7821569472
2490000000 -0.04585928095 0.7833495689
2491000000 -0.04218949688 0.7845169851
2492000000 -0.03852958213 0.7856594923
2493000000 -0.03487965826 0.7867773862
2494000000 -0.03123984143 0.7878709608
2495000000 -0.02761024245 0.7889405093
2496000000 -0.0239909669 0.7899863235
2497000000 -0.0203821151 0.7910086936
2498000000 -0.01678378229 0.7920079083
2499000000 -0.01319605861 0.7929842549
2500000000 -0.009619029202 0.7939380189
2501000000 -0.006052774296 0.7948694841
2502000000 -0.002497369264 0.7957789323
2503000000 0.001047115305 0.7966666437
2504000000 0.004580613521 0.7975328961
2505000000 0.008103064126 0.7983779657
2506000000 0.01161441041 0.7992021263
2507000000 0.01511460015 0.8000056497
2508000000 0.01860358549 0.8007888051
2509000000 0.02208132292 0.8015518598
2510000000 0.02554777314 0.8022950784
2511000000 0.02900290102 0.8030187233
2512000000 0.0324466755 0.8037230543
2513000000 0.03587906949 0.8044083287
2514000000 0.03930005982 0.8050748011
2515000000 0.04270962714 0.8057227234
2516000000 0.04610775583 0.806352345
2517000000 0.04949443393 0.8069639125
2518000000 0.05286965305 0.8075576696
2519000000 0.05623340825 0.8081338571
2520000000 0.05958569802 0.8086927132
2521000000 0.06292652414 0.809234473
2522000000 0.0662558916 0.8097593686
2523000000 0.06957380854 0.8102676292
2524000000 0.07288028614 0.8107594809
2525000000 0.07617533854 0.8112351469
2526000000 0.07945898274 0.8116948472
2527000000 0.08273123853 0.8121387987
2528000000 0.0859921284 0.8125672152
2529000000 0.08924167745 0.8129803073
2530000000 0.0924799133 0.8133782825
2531000000 0.09570686598 0.813761345
2532000000 0.09892256789 0.814129696
2533000000 0.1021270537 0.8144835332
2534000000 0.1053203602 0.8148230513
2535000000 0.1085025264 0.8151484416
2536000000 0.1116735931 0.8154598923
2537000000 0.1148336032 0.8157575881
2538000000 0.1179826013 0.8160417107
2539000000 0.1211206339 0.8163124384
2540000000 0.1242477489 0.8165699462
2541000000 0.1273639962 0.8168144059
2542000000 0.1304694267 0.817045986
2543000000 0.1335640931 0.8172648518
2544000000 0.1366480492 0.8174711653
2545000000 0.1397213502 0.8176650852
2546000000 0.1427840523 0.817846767
2547000000 0.145836213 0.8180163631
2548000000 0.1488778907 0.8181740225
2549000000 0.1519091446 0.8183198911
2550000000 0.154930035 0.8184541116
2551000000 0.1579406229 0.8185768235
2552000000 0.1609409699 0.8186881632
2553000000 0.1639311384 0.8187882641
2554000000 0.1669111911 0.8188772563
2555000000 0.1698811915 0.8189552668
2556000000 0.1728412033 0.8190224198
2557000000 0.1757912906 0.8190788363
2558000000 0.1787315178 0.8191246343
2559000000 0.1816619494 0.8191599288
2560000000 0.1845826503 0.8191848321
2561000000 0.1874936852 0.8191994533
2562000000 0.1903951189 0.8192038988
2563000000 0.1932870162 0.8191982722
2564000000 0.1961694417 0.8191826742
2565000000 0.1990424599 0.8191572027
2566000000 0.201906135 0.8191219531
2567000000 0.204760531 0.819077018
2568000000 0.2076057115 0.8190224872
2569000000 0.2104417396 0.8189584481
2570000000 0.2132686781 0.8188849855
2571000000 0.2160865892 0.8188021817
2572000000 0.2188955346 0.8187101164
2573000000 0.2216955754 0.8186088671
2574000000 0.2244867718 0.8184985088
2575000000 0.2272691836 0.8183791141
2576000000 0.2300428698 0.8182507534
2577000000 0.2328078884 0.8181134949
2578000000 0.2355642967 0.8179674046
2579000000 0.2383121513 0.8178125462
2580000000 0.2410515075 0.8176489816
2581000000 0.2437824199 0.8174767704
2582000000 0.2465049422 0.8172959705
2583000000 0.2492191267 0.8171066375
2584000000 0.251925025 0.8169088255
2585000000 0.2546226874 0.8167025865
2586000000 0.2573121632 0.8164879709
2587000000 0.2599935004 0.8162650272
2588000000 0.2626667461 0.8160338025
2589000000 0.2653319458 0.8157943421
2590000000 0.2679891441 0.8155466896
2591000000 0.2706383842 0.8152908876
2592000000 0.273279708 0.8150269766
2593000000 0.2759131563 0.8147549963
2594000000 0.2785387683 0.8144749847
2595000000 0.2811565821 0.8141869786
2596000000 0.2837666343 0.8138910137
2597000000 0.2863689603 0.8135871243
2598000000 0.288963594 0.8132753438
2599000000 0.291550568 0.8129557044
2600000000 0.2941299134 0.8126282374
2601000000 0.29670166 0.8122929731
2602000000 0.2992658363 0.8119499408
2603000000 0.3018224692 0.8115991692
2604000000 0.3043715841 0.8112406859
2605000000 0.3069132054 0.810874518
2606000000 0.3094473556 0.8105006918
2607000000 0.3119740561 0.8101192331
2608000000 0.3144933268 0.809730167
2609000000 0.3170051862 0.8093335182
2610000000 0.3195096514 0.8089293106
2611000000 0.322006738 0.8085175681
2612000000 0.3244964604 0.8080983141
2613000000 0.3269788314 0.8076715715
2614000000 0.3294538626 0.807237363
2615000000 0.3319215642 0.8067957113
2616000000 0.334381945 0.8063466387
2617000000 0.3368350124 0.8058901674
2618000000 0.3392807727 0.8054263195
2619000000 0.3417192308 0.8049551172
2620000000 0.3441503901 0.8044765827
2621000000 0.3465742531 0.803990738
2622000000 0.3489908208 0.8034976054
2623000000 0.3514000929 0.8029972075
2624000000 0.3538020682 0.8024895668
2625000000 0.356196744 0.8019747062
2626000000 0.3585841166 0.8014526487
2627000000 0.3609641812 0.8009234178
2628000000 0.3633369318 0.8003870372
2629000000 0.3657023613 0.7998435312
2630000000 0.3680604616 0.7992929242
2631000000 0.3704112234 0.7987352413
2632000000 0.3727546367 0.798170508
2633000000 0.3750906904 0.7975987503
2634000000 0.3774193722 0.7970199949
2635000000 0.3797406693 0.7964342689
2636000000 0.3820545677 0.7958416002
2637000000 0.3843610527 0.7952420172
2638000000 0.3866601087 0.794635549
2639000000 0.3889517196 0.7940222256
2640000000 0.3912358681 0.7934020774
2641000000 0.3935125364 0.7927751359
2642000000 0.3957817062 0.7921414331
2643000000 0.3980433583 0.7915010019
2644000000 0.4002974729 0.7908538762
2645000000 0.4025440299 0.7902000905
2646000000 0.4047830084 0.7895396803
2647000000 0.407014387 0.7888726819
2648000000 0.4092381441 0.7881991326
2649000000 0.4114542574 0.7875190706
2650000000 0.4136627043 0.786832535
2651000000 0.415863462 0.7861395658
2652000000 0.4180565072 0.7854402041
2653000000 0.4202418166 0.7847344918
2654000000 0.4224193662 0.7840224719
2655000000 0.4245891324 0.7833041884
2656000000 0.426751091 0.7825796862
2657000000 0.4289052179 0.7818490113
2658000000 0.431051489 0.7811122106
2659000000 0.4331898799 0.7803693322
2660000000 0.4353203666 0.7796204251
2661000000 0.4374429247 0.7788655391
2662000000 0.4395575302 0.7781047255
2663000000 0.4416641592 0.7773380362
2664000000 0.443762788 0.7765655244
2665000000 0.4458533928 0.7757872441
2666000000 0.4479359505 0.7750032504
2667000000 0.4500104379 0.7742135995
2668000000 0.4520768324 0.7734183484
2669000000 0.4541351116 0.7726175552
2670000000 0.4561852535 0.7718112791
2671000000 0.4582272366 0.7709995801
2672000000 0.4602610399 0.7701825191
2673000000 0.4622866428 0.7693601583
2674000000 0.4643040254 0.7685325604
2675000000 0.4663131681 0.7676997894
2676000000 0.4683140522 0.76686191
2677000000 0.4703066596 0.7660189879
2678000000 0.4722909727 0.7651710895
2679000000 0.4742669748 0.7643182824
2680000000 0.4762346499 0.7634606346
2681000000 0.4781939827 0.7625982154
2682000000 0.4801449589 0.7617310945
2683000000 0.4820875648 0.7608593427
2684000000 0.4840217878 0.7599830312
2685000000 0.485947616 0.7591022324
2686000000 0.4878650386 0.758217019
2687000000 0.4897740456 0.7573274646
2688000000 0.4916746282 0.7564336435
2689000000 0.4935667783 0.7555356305
2690000000 0.4954504892 0.754633501
2691000000 0.497325755 0.7537273312
2692000000 0.499192571 0.7528171977
2693000000 0.5010509336 0.7519031775
2694000000 0.5029008402 0.7509853485
2695000000 0.5047422895 0.7500637885
2696000000 0.5065752814 0.7491385763
2697000000 0.5083998169 0.7482097908
2698000000 0.5102158983 0.7472775112
2699000000 0.5120235289 0.7463418174
2700000000 0.5138227136 0.7454027892
