! PRELIMINARY bare PCB unless shell_eps > 0; see README.md
! L220 output ($1N324); all Gerber copper, components omitted (C216/L220/C217 not populated)
# Hz S RI R 50
2200000000 -0.3278039155 0.4934928664
2201000000 -0.3240610792 0.4993373032
2202000000 -0.3202754766 0.5051122838
2203000000 -0.316448533 0.5108177071
2204000000 -0.3125816631 0.5164535039
2205000000 -0.3086762698 0.5220196358
2206000000 -0.3047337439 0.5275160949
2207000000 -0.300755463 0.5329429035
2208000000 -0.2967427912 0.5383001129
2209000000 -0.2926970782 0.5435878033
2210000000 -0.2886196588 0.5488060829
2211000000 -0.2845118522 0.5539550872
2212000000 -0.2803749613 0.5590349785
2213000000 -0.2762102726 0.5640459454
2214000000 -0.2720190551 0.5689882015
2215000000 -0.2678025601 0.5738619855
2216000000 -0.2635620207 0.5786675597
2217000000 -0.2592986512 0.58340521
2218000000 -0.2550136468 0.5880752447
2219000000 -0.2507081831 0.5926779939
2220000000 -0.2463834158 0.5972138087
2221000000 -0.2420404803 0.6016830609
2222000000 -0.2376804913 0.6060861414
2223000000 -0.2333045425 0.6104234603
2224000000 -0.2289137064 0.6146954456
2225000000 -0.224509034 0.6189025428
2226000000 -0.2200915546 0.6230452138
2227000000 -0.2156622755 0.6271239364
2228000000 -0.2112221818 0.6311392033
2229000000 -0.2067722364 0.6350915218
2230000000 -0.2023133797 0.6389814124
2231000000 -0.1978465297 0.6428094086
2232000000 -0.1933725815 0.6465760558
2233000000 -0.1888924076 0.6502819109
2234000000 -0.184406858 0.653927541
2235000000 -0.1799167595 0.6575135233
2236000000 -0.1754229166 0.661040444
2237000000 -0.1709261106 0.6645088976
2238000000 -0.1664271006 0.6679194862
2239000000 -0.1619266227 0.6712728191
2240000000 -0.1574253907 0.6745695114
2241000000 -0.1529240959 0.6778101842
2242000000 -0.1484234073 0.6809954632
2243000000 -0.143923972 0.6841259783
2244000000 -0.1394264148 0.687202363
2245000000 -0.134931339 0.6902252538
2246000000 -0.1304393262 0.6931952893
2247000000 -0.1259509368 0.6961131099
2248000000 -0.1214667101 0.6989793568
2249000000 -0.1169871644 0.7017946719
2250000000 -0.1125127976 0.704559697
2251000000 -0.1080440874 0.7072750729
2252000000 -0.1035814914 0.7099414396
2253000000 -0.09912544754 0.7125594348
2254000000 -0.09467637465 0.7151296945
2255000000 -0.09023467244 0.7176528514
2256000000 -0.08580072207 0.7201295352
2257000000 -0.08137488648 0.7225603719
2258000000 -0.07695751072 0.7249459831
2259000000 -0.07254892242 0.7272869859
2260000000 -0.06814943212 0.7295839924
2261000000 -0.06375933371 0.7318376092
2262000000 -0.05937890486 0.7340484371
2263000000 -0.0550084074 0.7362170706
2264000000 -0.0506480878 0.7383440979
2265000000 -0.04629817758 0.7404301002
2266000000 -0.04195889374 0.7424756515
2267000000 -0.03763043926 0.7444813185
2268000000 -0.03331300349 0.7464476599
2269000000 -0.02900676263 0.7483752267
2270000000 -0.02471188023 0.7502645616
2271000000 -0.02042850756 0.7521161987
2272000000 -0.01615678417 0.7539306635
2273000000 -0.01189683828 0.755708473
2274000000 -0.007648787276 0.7574501347
2275000000 -0.003412738186 0.7591561473
2276000000 0.0008112118894 0.7608270002
2277000000 0.005022975294 0.7624631732
2278000000 0.009222473364 0.7640651369
2279000000 0.01340963597 0.7656333521
2280000000 0.01758440106 0.7671682702
2281000000 0.02174671421 0.7686703326
2282000000 0.02589652819 0.7701399714
2283000000 0.0300338025 0.7715776086
2284000000 0.03415850297 0.7729836567
2285000000 0.03827060128 0.7743585185
2286000000 0.04237007458 0.775702587
2287000000 0.04645690505 0.7770162457
2288000000 0.0505310795 0.7782998683
2289000000 0.05459258896 0.7795538193
2290000000 0.05864142829 0.7807784536
2291000000 0.0626775958 0.7819741167
2292000000 0.06670109285 0.7831411452
2293000000 0.07071192351 0.7842798662
2294000000 0.07471009419 0.7853905981
2295000000 0.07869561327 0.7864736505
2296000000 0.0826684908 0.7875293242
2297000000 0.08662873814 0.7885579116
2298000000 0.09057636764 0.7895596967
2299000000 0.09451139238 0.7905349555
2300000000 0.09843382581 0.791483956
2301000000 0.1023436815 0.7924069584
2302000000 0.1062409729 0.7933042154
2303000000 0.1101257129 0.7941759724
2304000000 0.1139979139 0.7950224677
2305000000 0.1178575873 0.7958439327
2306000000 0.1217047434 0.7966405923
2307000000 0.1255393911 0.7974126648
2308000000 0.1293615378 0.7981603625
2309000000 0.1331711891 0.7988838918
2310000000 0.1369683488 0.7995834534
2311000000 0.1407530185 0.8002592427
2312000000 0.1445251976 0.8009114497
2313000000 0.1482848832 0.80154026
2314000000 0.1520320698 0.8021458542
2315000000 0.1557667494 0.8027284086
2316000000 0.1594889112 0.8032880957
2317000000 0.1631985416 0.8038250838
2318000000 0.1668956242 0.804339538
2319000000 0.1705801395 0.8048316199
2320000000 0.1742520651 0.8053014881
2321000000 0.1779113756 0.8057492986
2322000000 0.1815580424 0.8061752047
2323000000 0.1851920339 0.8065793575
2324000000 0.1888133153 0.8069619062
2325000000 0.1924218488 0.8073229983
2326000000 0.1960175934 0.8076627796
2327000000 0.1996005051 0.8079813949
2328000000 0.2031705369 0.8082789878
2329000000 0.2067276386 0.8085557013
2330000000 0.2102717574 0.8088116778
2331000000 0.2138028372 0.8090470592
2332000000 0.2173208195 0.8092619877
2333000000 0.2208256428 0.8094566052
2334000000 0.224317243 0.8096310543
2335000000 0.2277955536 0.8097854779
2336000000 0.2312605054 0.8099200197
2337000000 0.2347120272 0.8100348242
2338000000 0.2381500453 0.8101300371
2339000000 0.2415744841 0.8102058054
2340000000 0.244985266 0.8102622774
2341000000 0.2483823114 0.810299603
2342000000 0.2517655394 0.810317934
2343000000 0.2551348672 0.8103174238
2344000000 0.2584902108 0.8102982281
2345000000 0.2618314851 0.8102605044
2346000000 0.2651586038 0.8102044127
2347000000 0.2684714797 0.8101301152
2348000000 0.2717700249 0.8100377766
2349000000 0.2750541512 0.8099275641
2350000000 0.2783237697 0.8097996476
2351000000 0.2815787914 0.8096541995
2352000000 0.2848191275 0.8094913951
2353000000 0.2880446891 0.8093114124
2354000000 0.2912553878 0.8091144323
2355000000 0.2944511358 0.8089006386
2356000000 0.2976318459 0.8086702179
2357000000 0.3007974317 0.8084233597
2358000000 0.3039478082 0.8081602565
2359000000 0.3070828915 0.8078811038
2360000000 0.3102025991 0.8075860997
2361000000 0.3133068501 0.8072754456
2362000000 0.3163955655 0.8069493454
2363000000 0.3194686685 0.8066080061
2364000000 0.3225260839 0.8062516373
2365000000 0.3255677393 0.8058804515
2366000000 0.3285935647 0.8054946638
2367000000 0.3316034926 0.8050944918
2368000000 0.3345974585 0.8046801558
2369000000 0.3375754007 0.8042518786
2370000000 0.3405372607 0.8038098851
2371000000 0.3434829833 0.8033544027
2372000000 0.3464125168 0.8028856611
2373000000 0.3493258128 0.8024038916
2374000000 0.3522228267 0.801909328
2375000000 0.3551035179 0.8014022055
2376000000 0.3579678494 0.8008827612
2377000000 0.3608157885 0.8003512338
2378000000 0.3636473065 0.7998078635
2379000000 0.366462379 0.7992528915
2380000000 0.3692609861 0.7986865605
2381000000 0.3720431121 0.798109114
2382000000 0.3748087459 0.7975207965
2383000000 0.3775578811 0.796921853
2384000000 0.3802905158 0.7963125293
2385000000 0.3830066531 0.7956930713
2386000000 0.3857063006 0.7950637253
2387000000 0.3883894709 0.7944247376
2388000000 0.3910561814 0.7937763544
2389000000 0.3937064543 0.7931188216
2390000000 0.3963403171 0.7924523845
2391000000 0.3989578018 0.7917772879
2392000000 0.4015589456 0.7910937758
2393000000 0.4041437908 0.7904020911
2394000000 0.4067123842 0.7897024757
2395000000 0.409264778 0.7889951698
2396000000 0.4118010292 0.7882804126
2397000000 0.4143211995 0.7875584412
2398000000 0.4168253557 0.786829491
2399000000 0.4193135693 0.7860937954
2400000000 0.4217859167 0.7853515856
2401000000 0.4242424789 0.7846030902
2402000000 0.4266833415 0.7838485355
2403000000 0.4291085949 0.7830881452
2404000000 0.4315183339 0.7823221398
2405000000 0.4339126576 0.7815507372
2406000000 0.4362916698 0.7807741517
2407000000 0.4386554781 0.7799925945
2408000000 0.4410041946 0.7792062735
2409000000 0.4433379353 0.7784153927
2410000000 0.4456568202 0.7776201525
2411000000 0.4479609729 0.7768207495
2412000000 0.4502505209 0.7760173761
2413000000 0.4525255953 0.7752102207
2414000000 0.4547863304 0.7743994674
2415000000 0.457032864 0.7735852961
2416000000 0.4592653369 0.7727678819
2417000000 0.461483893 0.7719473958
2418000000 0.463688679 0.7711240036
2419000000 0.4658798443 0.7702978667
2420000000 0.4680575409 0.7694691417
2421000000 0.4702219231 0.76863798
2422000000 0.4723731473 0.7678045282
2423000000 0.4745113723 0.7669689278
2424000000 0.4766367584 0.7661313153
2425000000 0.4787494679 0.7652918217
2426000000 0.4808496643 0.7644505732
2427000000 0.4829375128 0.7636076906
2428000000 0.4850131797 0.7627632891
2429000000 0.4870768321 0.7619174791
2430000000 0.4891286382 0.7610703654
2431000000 0.4911687666 0.7602220475
2432000000 0.4931973866 0.7593726195
2433000000 0.4952146677 0.7585221702
2434000000 0.4972207795 0.7576707831
2435000000 0.4992158916 0.7568185363
2436000000 0.5012001732 0.7559655028
2437000000 0.5031737932 0.75511175
2438000000 0.5051369201 0.7542573405
2439000000 0.5070897212 0.7534023312
2440000000 0.5090323633 0.7525467743
2441000000 0.5109650119 0.7516907166
2442000000 0.5128878313 0.7508342001
2443000000 0.5148009842 0.7499772618
2444000000 0.5167046319 0.7491199337
2445000000 0.518598934 0.748262243
2446000000 0.520484048 0.7474042122
2447000000 0.5223601294 0.7465458594
2448000000 0.5242273317 0.7456871978
2449000000 0.5260858058 0.7448282365
2450000000 0.5279357003 0.7439689799
2451000000 0.5297771611 0.7431094285
2452000000 0.5316103314 0.7422495786
2453000000 0.5334353514 0.7413894225
2454000000 0.5352523586 0.7405289486
2455000000 0.5370614872 0.7396681418
2456000000 0.5388628681 0.7388069831
2457000000 0.5406566291 0.7379454502
2458000000 0.5424428944 0.7370835176
2459000000 0.5442217849 0.7362211565
2460000000 0.5459934177 0.735358335
2461000000 0.5477579063 0.7344950184
2462000000 0.5495153606 0.7336311695
2463000000 0.5512658863 0.7327667482
2464000000 0.5530095856 0.7319017121
2465000000 0.5547465566 0.7310360167
2466000000 0.5564768934 0.7301696153
2467000000 0.5582006861 0.7293024592
2468000000 0.5599180207 0.728434498
2469000000 0.561628979 0.7275656799
2470000000 0.5633336388 0.7266959514
2471000000 0.5650320737 0.7258252578
2472000000 0.5667243531 0.7249535433
2473000000 0.5684105424 0.7240807512
2474000000 0.5700907025 0.7232068241
2475000000 0.5717648904 0.7223317039
2476000000 0.5734331588 0.7214553319
2477000000 0.5750955564 0.7205776495
2478000000 0.5767521276 0.7196985977
2479000000 0.5784029129 0.7188181175
2480000000 0.5800479486 0.7179361503
2481000000 0.5816872672 0.7170526377
2482000000 0.5833208969 0.7161675219
2483000000 0.5849488623 0.7152807457
2484000000 0.5865711841 0.7143922528
2485000000 0.5881878792 0.7135019876
2486000000 0.5897989606 0.7126098958
2487000000 0.5914044381 0.7117159244
2488000000 0.5930043175 0.7108200216
2489000000 0.5945986014 0.7099221372
2490000000 0.5961872889 0.7090222224
2491000000 0.597770376 0.7081202305
2492000000 0.5993478552 0.7072161165
2493000000 0.6009197163 0.7063098373
2494000000 0.6024859458 0.705401352
2495000000 0.6040465276 0.7044906219
2496000000 0.6056014426 0.7035776105
2497000000 0.6071506694 0.7026622838
2498000000 0.6086941837 0.7017446104
2499000000 0.6102319593 0.7008245612
2500000000 0.6117639672 0.6999021098
2501000000 0.6132901768 0.6989772329
2502000000 0.6148105552 0.6980499094
2503000000 0.6163250678 0.6971201216
2504000000 0.6178336781 0.6961878545
2505000000 0.6193363482 0.6952530959
2506000000 0.6208330387 0.694315837
2507000000 0.622323709 0.6933760718
2508000000 0.6238083172 0.6924337975
2509000000 0.6252868205 0.6914890142
2510000000 0.6267591751 0.6905417256
2511000000 0.6282253367 0.6895919382
2512000000 0.6296852602 0.6886396619
2513000000 0.6311389003 0.6876849095
2514000000 0.6325862113 0.6867276973
2515000000 0.6340271472 0.6857680447
2516000000 0.6354616622 0.6848059742
2517000000 0.6368897107 0.6838415114
2518000000 0.6383112471 0.6828746853
2519000000 0.6397262266 0.6819055278
2520000000 0.6411346047 0.6809340738
2521000000 0.6425363376 0.6799603614
2522000000 0.6439313823 0.6789844317
2523000000 0.645319697 0.6780063286
2524000000 0.6467012408 0.6770260991
2525000000 0.648075974 0.6760437927
2526000000 0.6494438583 0.6750594619
2527000000 0.6508048569 0.674073162
2528000000 0.6521589343 0.6730849506
2529000000 0.6535060571 0.672094888
2530000000 0.6548461934 0.6711030371
2531000000 0.6561793134 0.670109463
2532000000 0.657505389 0.6691142331
2533000000 0.6588243945 0.668117417
2534000000 0.6601363063 0.6671190864
2535000000 0.6614411031 0.666119315
2536000000 0.6627387659 0.6651181784
2537000000 0.6640292782 0.6641157539
2538000000 0.665312626 0.6631121205
2539000000 0.6665887979 0.6621073588
2540000000 0.6678577852 0.6611015507
2541000000 0.6691195819 0.6600947797
2542000000 0.6703741848 0.65908713
2543000000 0.6716215934 0.6580786875
2544000000 0.6728618103 0.6570695384
2545000000 0.6740948409 0.6560597703
2546000000 0.6753206934 0.655049471
2547000000 0.6765393793 0.6540387293
2548000000 0.6777509127 0.653027634
2549000000 0.6789553112 0.6520162747
2550000000 0.680152595 0.6510047407
2551000000 0.6813427876 0.6499931216
2552000000 0.6825259155 0.6489815069
2553000000 0.6837020081 0.6479699858
2554000000 0.6848710981 0.6469586473
2555000000 0.686033221 0.6459475798
2556000000 0.6871884154 0.644936871
2557000000 0.6883367229 0.6439266082
2558000000 0.6894781879 0.6429168775
2559000000 0.690612858 0.6419077643
2560000000 0.6917407833 0.6408993526
2561000000 0.6928620171 0.6398917254
2562000000 0.6939766153 0.6388849643
2563000000 0.6950846365 0.6378791495
2564000000 0.6961861422 0.6368743595
2565000000 0.6972811961 0.6358706712
2566000000 0.6983698649 0.6348681596
2567000000 0.6994522174 0.633866898
2568000000 0.700528325 0.6328669576
2569000000 0.7015982614 0.6318684074
2570000000 0.7026621025 0.6308713143
2571000000 0.7037199264 0.6298757429
2572000000 0.704771813 0.6288817555
2573000000 0.7058178445 0.6278894118
2574000000 0.7068581048 0.6268987691
2575000000 0.7078926795 0.6259098819
2576000000 0.7089216559 0.6249228022
2577000000 0.709945123 0.6239375792
2578000000 0.710963171 0.6229542591
2579000000 0.7119758916 0.6219728856
2580000000 0.7129833776 0.620993499
2581000000 0.7139857229 0.620016137
2582000000 0.7149830224 0.6190408341
2583000000 0.715975372 0.6180676218
2584000000 0.7169628681 0.6170965284
2585000000 0.7179456078 0.6161275792
2586000000 0.7189236889 0.6151607963
2587000000 0.7198972092 0.6141961986
2588000000 0.7208662669 0.6132338018
2589000000 0.7218309605 0.6122736186
2590000000 0.7227913883 0.6113156581
2591000000 0.7237476484 0.6103599267
2592000000 0.7246998388 0.6094064271
2593000000 0.7256480571 0.6084551593
2594000000 0.7265924003 0.6075061198
2595000000 0.7275329649 0.6065593021
2596000000 0.7284698465 0.6056146964
2597000000 0.72940314 0.6046722902
2598000000 0.7303329391 0.6037320676
2599000000 0.7312593366 0.6027940099
2600000000 0.732182424 0.6018580951
2601000000 0.7331022912 0.6009242988
2602000000 0.7340190272 0.5999925934
2603000000 0.7349327189 0.5990629484
2604000000 0.7358434519 0.598135331
2605000000 0.7367513097 0.5972097053
2606000000 0.7376563743 0.596286033
2607000000 0.7385587254 0.5953642733
2608000000 0.7394584408 0.5944443828
2609000000 0.7403555962 0.593526316
2610000000 0.7412502648 0.5926100249
2611000000 0.7421425177 0.5916954595
2612000000 0.7430324235 0.5907825675
2613000000 0.7439200483 0.5898712948
2614000000 0.7448054556 0.5889615853
2615000000 0.7456887064 0.5880533812
2616000000 0.7465698588 0.587146623
2617000000 0.7474489684 0.5862412496
2618000000 0.7483260877 0.5853371984
2619000000 0.7492012666 0.5844344055
2620000000 0.7500745518 0.5835328059
2621000000 0.7509459872 0.5826323332
2622000000 0.7518156138 0.5817329201
2623000000 0.7526834694 0.5808344987
2624000000 0.7535495889 0.5799369999
2625000000 0.7544140039 0.5790403543
2626000000 0.755276743 0.5781444917
2627000000 0.7561378319 0.5772493419
2628000000 0.7569972929 0.5763548339
2629000000 0.7578551452 0.575460897
2630000000 0.7587114051 0.5745674603
2631000000 0.7595660855 0.573674453
2632000000 0.7604191964 0.5727818045
2633000000 0.7612707446 0.5718894445
2634000000 0.7621207339 0.5709973035
2635000000 0.762969165 0.5701053121
2636000000 0.7638160356 0.5692134019
2637000000 0.7646613405 0.5683215052
2638000000 0.7655050715 0.5674295554
2639000000 0.7663472174 0.5665374867
2640000000 0.7671877644 0.5656452347
2641000000 0.7680266957 0.5647527361
2642000000 0.7688639919 0.5638599292
2643000000 0.7696996308 0.5629667535
2644000000 0.7705335878 0.5620731504
2645000000 0.7713658356 0.5611790627
2646000000 0.7721963444 0.5602844352
2647000000 0.7730250821 0.5593892144
2648000000 0.7738520145 0.5584933491
2649000000 0.7746771049 0.5575967898
2650000000 0.7755003145 0.5566994893
2651000000 0.7763216026 0.5558014026
2652000000 0.7771409266 0.5549024872
2653000000 0.7779582418 0.5540027025
2654000000 0.7787735021 0.5531020109
2655000000 0.7795866596 0.552200377
2656000000 0.7803976647 0.551297768
2657000000 0.7812064668 0.5503941537
2658000000 0.7820130136 0.5494895067
2659000000 0.7828172518 0.5485838021
2660000000 0.783619127 0.5476770182
2661000000 0.7844185838 0.5467691355
2662000000 0.7852155659 0.5458601379
2663000000 0.7860100165 0.5449500118
2664000000 0.7868018778 0.5440387466
2665000000 0.7875910919 0.5431263347
2666000000 0.7883776003 0.5422127713
2667000000 0.7891613444 0.5412980545
2668000000 0.7899422653 0.5403821854
2669000000 0.7907203041 0.5394651682
2670000000 0.7914954023 0.5385470097
2671000000 0.7922675013 0.5376277198
2672000000 0.793036543 0.5367073113
2673000000 0.7938024698 0.5357857999
2674000000 0.7945652247 0.534863204
2675000000 0.7953247512 0.5339395451
2676000000 0.796080994 0.5330148472
2677000000 0.7968338984 0.5320891373
2678000000 0.7975834109 0.531162445
2679000000 0.7983294793 0.5302348024
2680000000 0.7990720524 0.5293062445
2681000000 0.7998110805 0.5283768087
2682000000 0.8005465155 0.5274465349
2683000000 0.8012783107 0.5265154654
2684000000 0.8020064212 0.525583645
2685000000 0.8027308038 0.5246511205
2686000000 0.8034514174 0.5237179412
2687000000 0.8041682225 0.5227841584
2688000000 0.8048811819 0.5218498253
2689000000 0.8055902605 0.5209149974
2690000000 0.8062954254 0.5199797317
2691000000 0.8069966459 0.5190440872
2692000000 0.8076938939 0.5181081244
2693000000 0.8083871433 0.5171719055
2694000000 0.809076371 0.5162354943
2695000000 0.809761556 0.5152989555
2696000000 0.8104426802 0.5143623556
2697000000 0.8111197281 0.5134257618
2698000000 0.8117926868 0.5124892427
2699000000 0.8124615462 0.5115528675
2700000000 0.813126299 0.5106167065
