! PRELIMINARY bare PCB unless shell_eps > 0; see README.md
! L220 output ($1N324), with L220 and C216 excluded and C217 DNP
# Hz S RI R 50
2200000000 0.4923178568 -0.2049342225
2201000000 0.4899120954 -0.2047703688
2202000000 0.4875219702 -0.2045464129
2203000000 0.4851537289 -0.2042604484
2204000000 0.4828140077 -0.2039111814
2205000000 0.4805097752 -0.203497978
2206000000 0.4782482704 -0.2030209057
2207000000 0.4760369371 -0.2024807704
2208000000 0.4738833539 -0.201879146
2209000000 0.4717951614 -0.2012183986
2210000000 0.4697799858 -0.200501703
2211000000 0.467845361 -0.1997330531
2212000000 0.4659986495 -0.1989172638
2213000000 0.4642469615 -0.1980599666
2214000000 0.4625970751 -0.1971675969
2215000000 0.4610553566 -0.1962473741
2216000000 0.4596276816 -0.1953072736
2217000000 0.4583193595 -0.1943559923
2218000000 0.4571350589 -0.193402906
2219000000 0.4560787383 -0.1924580202
2220000000 0.4551535794 -0.1915319137
2221000000 0.4543619258 -0.1906356765
2222000000 0.453705227 -0.1897808413
2223000000 0.4531839877 -0.1889793091
2224000000 0.4527977242 -0.1882432708
2225000000 0.4525449271 -0.1875851233
2226000000 0.4524230315 -0.1870173829
2227000000 0.4524283946 -0.1865525944
2228000000 0.4525562815 -0.1862032383
2229000000 0.4528008589 -0.1859816365
2230000000 0.4531551972 -0.1858998566
2231000000 0.4536112812 -0.1859696153
2232000000 0.454160029 -0.1862021838
2233000000 0.4547913194 -0.1866082928
2234000000 0.4554940281 -0.1871980402
2235000000 0.4562560711 -0.1879808019
2236000000 0.4570644574 -0.1889651453
2237000000 0.4579053483 -0.1901587471
2238000000 0.4587641242 -0.1915683165
2239000000 0.4596254588 -0.1931995229
2240000000 0.460473399 -0.1950569311
2241000000 0.4612914513 -0.1971439414
2242000000 0.462062673 -0.1994627385
2243000000 0.4627697683 -0.202014247
2244000000 0.4633951887 -0.2047980955
2245000000 0.4639212356 -0.2078125887
2246000000 0.4643301668 -0.2110546885
2247000000 0.464604304 -0.2145200041
2248000000 0.4647261415 -0.2182027905
2249000000 0.4646784551 -0.222095957
2250000000 0.4644444105 -0.2261910843
2251000000 0.4640076701 -0.2304784509
2252000000 0.4633524985 -0.234947068
2253000000 0.4624638635 -0.2395847243
2254000000 0.4613275353 -0.2443780378
2255000000 0.4599301796 -0.249312517
2256000000 0.4582594471 -0.2543726294
2257000000 0.4563040562 -0.2595418769
2258000000 0.4540538697 -0.2648028788
2259000000 0.4514999646 -0.2701374606
2260000000 0.4486346945 -0.2755267483
2261000000 0.445451744 -0.2809512681
2262000000 0.4419461747 -0.2863910499
2263000000 0.438114463 -0.2918257349
2264000000 0.4339545281 -0.2972346855
2265000000 0.4294657519 -0.3025970975
2266000000 0.4246489889 -0.3078921133
2267000000 0.4195065671 -0.3130989362
2268000000 0.4140422796 -0.3181969433
2269000000 0.4082613666 -0.3231657983
2270000000 0.4021704886 -0.3279855616
2271000000 0.3957776908 -0.3326367981
2272000000 0.3890923583 -0.3371006817
2273000000 0.3821251637 -0.3413590949
2274000000 0.3748880065 -0.3453947246
2275000000 0.3673939447 -0.3491911516
2276000000 0.3596571203 -0.3527329342
2277000000 0.3516926776 -0.3560056857
2278000000 0.3435166762 -0.3589961437
2279000000 0.335145999 -0.3616922331
2280000000 0.3265982552 -0.36408312
2281000000 0.3178916804 -0.3661592581
2282000000 0.3090450328 -0.3679124262
2283000000 0.3000774877 -0.3693357567
2284000000 0.2910085308 -0.3704237564
2285000000 0.2818578498 -0.3711723166
2286000000 0.272645227 -0.3715787161
2287000000 0.2633904324 -0.3716416139
2288000000 0.2541131182 -0.3713610345
2289000000 0.2448327154 -0.3707383436
2290000000 0.2355683341 -0.3697762163
2291000000 0.2263386667 -0.3684785973
2292000000 0.2171618957 -0.3668506534
2293000000 0.2080556067 -0.3648987194
2294000000 0.1990367059 -0.3626302367
2295000000 0.1901213446 -0.3600536868
2296000000 0.1813248497 -0.3571785183
2297000000 0.1726616607 -0.3540150702
2298000000 0.1641452742 -0.3505744899
2299000000 0.1557881957 -0.3468686484
2300000000 0.1476018994 -0.3429100522
2301000000 0.139596795 -0.3387117534
2302000000 0.1317822035 -0.3342872576
2303000000 0.1241663398 -0.329650432
2304000000 0.1167563044 -0.3248154125
2305000000 0.109558082 -0.3197965119
2306000000 0.1025765482 -0.3146081293
2307000000 0.09581548369 -0.3092646612
2308000000 0.08927759569 -0.3037804156
2309000000 0.08296454608 -0.2981695284
2310000000 0.07687698637 -0.2924458846
2311000000 0.07101459859 -0.2866230426
2312000000 0.065376142 -0.2807141644
2313000000 0.05995950498 -0.2747319494
2314000000 0.05476176155 -0.2686885756
2315000000 0.04977923207 -0.2625956448
2316000000 0.04500754753 -0.2564641353
2317000000 0.04044171669 -0.2503043603
2318000000 0.03607619572 -0.2441259328
2319000000 0.03190495952 -0.2379377378
2320000000 0.02792157418 -0.2317479101
2321000000 0.02411926995 -0.2255638202
2322000000 0.02049101418 -0.2193920654
2323000000 0.01702958356 -0.2132384685
2324000000 0.01372763506 -0.2071080825
2325000000 0.01057777516 -0.2010052013
2326000000 0.007572626682 -0.1949333768
2327000000 0.004704892809 -0.1888954412
2328000000 0.001967417856 -0.1828935345
2329000000 -0.0006467557198 -0.1769291374
2330000000 -0.003144334379 -0.1710031082
2331000000 -0.005531725004 -0.1651157238
2332000000 -0.007814991132 -0.1592667245
2333000000 -0.009999814173 -0.1534553616
2334000000 -0.0120914598 -0.1476804476
2335000000 -0.01409474969 -0.141940409
2336000000 -0.01601403867 -0.1362333393
2337000000 -0.01785319735 -0.1305570546
2338000000 -0.01961560028 -0.1249091484
2339000000 -0.02130411947 -0.1192870472
2340000000 -0.02292112333 -0.1136880647
2341000000 -0.02446848072 -0.1081094561
2342000000 -0.0259475701 -0.1025484697
2343000000 -0.02735929342 -0.09700239736
2344000000 -0.02870409457 -0.09146862203
2345000000 -0.02998198199 -0.08594466312
2346000000 -0.03119255525 -0.08042821816
2347000000 -0.0323350351 -0.07491720141
2348000000 -0.03340829673 -0.06940977854
2349000000 -0.03441090572 -0.06390439751
2350000000 -0.03534115632 -0.05839981521
2351000000 -0.0361971116 -0.0528951198
2352000000 -0.03697664511 -0.0473897487
2353000000 -0.03767748341 -0.04188350204
2354000000 -0.03829724925 -0.03637655161
2355000000 -0.03883350481 -0.03086944538
2356000000 -0.03928379454 -0.02536310754
2357000000 -0.03964568737 -0.01985883425
2358000000 -0.03991681761 -0.01435828524
2359000000 -0.04009492441 -0.008863471377
2360000000 -0.04017788919 -0.003376738449
2361000000 -0.04016377091 0.002099252527
2362000000 -0.04005083866 0.007561548314
2363000000 -0.03983760149 0.01300692939
2364000000 -0.03952283507 0.0184319385
2365000000 -0.03910560503 0.02383291154
2366000000 -0.03858528691 0.02920601029
2367000000 -0.0379615823 0.03454725676
2368000000 -0.03723453143 0.03985256868
2369000000 -0.03640452185 0.04511779574
2370000000 -0.03547229334 0.05033875631
2371000000 -0.03443893898 0.05551127406
2372000000 -0.03330590252 0.06063121428
2373000000 -0.03207497207 0.06569451947
2374000000 -0.0307482702 0.0706972438
2375000000 -0.02932824076 0.07563558616
2376000000 -0.02781763235 0.0805059215
2377000000 -0.02621947901 0.08530483004
2378000000 -0.02453707796 0.09002912425
2379000000 -0.02277396505 0.09467587324
2380000000 -0.02093388789 0.09924242442
2381000000 -0.01902077717 0.1037264221
2382000000 -0.01703871642 0.1081258231
2383000000 -0.01499191049 0.1124389092
2384000000 -0.01288465316 0.1166642958
2385000000 -0.01072129421 0.1208009383
2386000000 -0.008506206247 0.1248481336
2387000000 -0.006243751663 0.1288055197
2388000000 -0.003938250071 0.132673071
2389000000 -0.001593946509 0.1364510909
2390000000 0.0007850192648 0.1401402012
2391000000 0.003194642072 0.1437413283
2392000000 0.00563107895 0.1472556869
2393000000 0.008090674853 0.1506847611
2394000000 0.01056998619 0.1540302831
2395000000 0.01306580199 0.1572942095
2396000000 0.01557516248 0.1604786963
2397000000 0.01809537497 0.1635860717
2398000000 0.02062402686 0.1666188082
2399000000 0.02315899578 0.1695794933
2400000000 0.02569845655 0.1724707997
2401000000 0.02824088529 0.1752954549
2402000000 0.03078506036 0.1780562111
2403000000 0.03333006026 0.180755815
2404000000 0.03587525864 0.1833969782
2405000000 0.03842031632 0.1859823487
2406000000 0.04096517067 0.1885144832
2407000000 0.04351002221 0.1909958206
2408000000 0.04605531884 0.1934286579
2409000000 0.04860173777 0.1958151268
2410000000 0.05115016534 0.1981571737
2411000000 0.05370167504 0.2004565405
2412000000 0.05625750392 0.2027147492
2413000000 0.05881902761 0.2049330876
2414000000 0.06138773434 0.2071125993
2415000000 0.0639651981 0.2092540748
2416000000 0.06655305129 0.2113580466
2417000000 0.06915295714 0.2134247863
2418000000 0.0717665822 0.2154543048
2419000000 0.07439556909 0.2174463557
2420000000 0.0770415099 0.2194004405
2421000000 0.07970592047 0.221315817
2422000000 0.0823902157 0.2231915103
2423000000 0.08509568629 0.2250263255
2424000000 0.08782347706 0.2268188638
2425000000 0.09057456696 0.228567539
2426000000 0.09334975117 0.2302705972
2427000000 0.09614962523 0.2319261377
2428000000 0.09897457151 0.2335321347
2429000000 0.101824748 0.2350864612
2430000000 0.1047000796 0.2365869127
2431000000 0.1076002521 0.2380312323
2432000000 0.1105247082 0.2394171358
2433000000 0.1134726471 0.2407423371
2434000000 0.1164430255 0.2420045734
2435000000 0.1194345621 0.2432016294
2436000000 0.122445744 0.2443313621
2437000000 0.1254748357 0.2453917234
2438000000 0.1285198901 0.2463807826
2439000000 0.1315787623 0.2472967464
2440000000 0.1346491243 0.2481379785
2441000000 0.1377284825 0.248903017
2442000000 0.1408141963 0.2495905895
2443000000 0.143903498 0.2501996265
2444000000 0.1469935143 0.2507292733
2445000000 0.1500812882 0.251178898
2446000000 0.1531638022 0.2515480988
2447000000 0.1562380013 0.2518367081
2448000000 0.1593008167 0.2520447943
2449000000 0.1623491894 0.2521726609
2450000000 0.1653800935 0.2522208441
2451000000 0.1683905586 0.252190107
2452000000 0.1713776922 0.2520814322
2453000000 0.1743387002 0.251896012
2454000000 0.1772709074 0.2516352366
2455000000 0.1801717752 0.2513006803
2456000000 0.1830389191 0.2508940861
2457000000 0.1858701236 0.2504173485
2458000000 0.1886633553 0.2498724951
2459000000 0.1914167744 0.249261667
2460000000 0.194128744 0.2485870979
2461000000 0.1967978367 0.2478510928
2462000000 0.1994228397 0.247056006
2463000000 0.2020027571 0.246204219
2464000000 0.20453681 0.2452981179
2465000000 0.2070244345 0.2443400713
2466000000 0.2094652773 0.2433324085
2467000000 0.211859189 0.2422773987
2468000000 0.2142062158 0.2411772299
2469000000 0.2165065882 0.2400339902
2470000000 0.2187607091 0.2388496498
2471000000 0.2209691391 0.2376260437
2472000000 0.2231325806 0.2363648575
2473000000 0.2252518604 0.2350676133
2474000000 0.2273279113 0.2337356589
2475000000 0.2293617526 0.2323701577
2476000000 0.2313544692 0.2309720817
2477000000 0.2333071909 0.2295422061
2478000000 0.235221071 0.2280811062
2479000000 0.2370972643 0.2265891562
2480000000 0.2389369059 0.2250665311
2481000000 0.2407410897 0.2235132096
2482000000 0.2425108477 0.2219289797
2483000000 0.2442471297 0.2203134471
2484000000 0.2459507843 0.218666044
2485000000 0.2476225406 0.216986041
2486000000 0.2492629916 0.2152725606
2487000000 0.2508725787 0.2135245919
2488000000 0.2524515777 0.2117410067
2489000000 0.2540000872 0.2099205779
2490000000 0.2555180181 0.2080619975
2491000000 0.2570050854 0.2061638966
2492000000 0.258460802 0.2042248658
2493000000 0.2598844745 0.2022434759
2494000000 0.2612752012 0.2002182991
2495000000 0.2626318724 0.1981479303
2496000000 0.263953172 0.1960310078
2497000000 0.2652375826 0.1938662345
2498000000 0.2664833912 0.1916523974
2499000000 0.2676886975 0.1893883875
2500000000 0.2688514244 0.1870732179
2501000000 0.2699693296 0.184706041
2502000000 0.2710400193 0.1822861647
2503000000 0.2720609628 0.1798130665
2504000000 0.2730295093 0.1772864066
2505000000 0.273942905 0.1747060391
2506000000 0.2747983117 0.172072021
2507000000 0.2755928256 0.1693846201
2508000000 0.2763234977 0.16664432
2509000000 0.2769873534 0.1638518239
2510000000 0.2775814126 0.1610080559
2511000000 0.2781027106 0.1581141601
2512000000 0.2785483175 0.1551714984
2513000000 0.2789153578 0.1521816459
2514000000 0.2792010293 0.1491463838
2515000000 0.2794026211 0.1460676922
2516000000 0.2795175304 0.1429477389
2517000000 0.2795432786 0.1397888688
2518000000 0.2794775254 0.13659359
2519000000 0.2793180819 0.1333645601
2520000000 0.2790629218 0.1301045703
2521000000 0.2787101911 0.126816529
2522000000 0.278258216 0.1235034445
2523000000 0.2777055087 0.1201684073
2524000000 0.2770507713 0.1168145716
2525000000 0.2762928982 0.1134451371
2526000000 0.275430976 0.1100633304
2527000000 0.2744642817 0.106672387
2528000000 0.2733922793 0.1032755333
2529000000 0.2722146137 0.09987596948
2530000000 0.270931104 0.0964768534
2531000000 0.2695417341 0.09308128489
2532000000 0.2680466427 0.08969229173
2533000000 0.2664461107 0.08631281669
2534000000 0.2647405486 0.08294570611
2535000000 0.262930482 0.07959370001
2536000000 0.2610165363 0.07625942393
2537000000 0.2589994207 0.07294538254
2538000000 0.256879912 0.06965395507
2539000000 0.254658837 0.06638739271
2540000000 0.2523370563 0.06314781786
2541000000 0.2499154467 0.05993722543
2542000000 0.2473948845 0.05675748597
2543000000 0.2447762294 0.05361035076
2544000000 0.242060309 0.05049745874
2545000000 0.2392479036 0.04742034518
2546000000 0.236339733 0.04438045207
2547000000 0.2333364434 0.04137914004
2548000000 0.2302385969 0.03841770174
2549000000 0.2270466616 0.03549737648
2550000000 0.2237610036 0.03261936599
2551000000 0.2203818814 0.02978485117
2552000000 0.2169094409 0.02699500955
2553000000 0.213343714 0.02425103332
2554000000 0.2096846175 0.02155414772
2555000000 0.2059319559 0.01890562958
2556000000 0.2020854247 0.01630682575
2557000000 0.1981446163 0.0137591713
2558000000 0.1941090289 0.01126420714
2559000000 0.1899780757 0.008823596969
2560000000 0.1857510976 0.006439143262
2561000000 0.1814273766 0.004112802144
2562000000 0.1770061519 0.001846696921
2563000000 0.1724866367 -0.0003568698843
2564000000 0.1678680373 -0.002495406183
2565000000 0.1631495727 -0.004566221792
2566000000 0.1583304963 -0.006566421878
2567000000 0.1534101171 -0.008492902485
2568000000 0.1483878233 -0.01034234824
2569000000 0.1432631051 -0.01211123234
2570000000 0.1380355784 -0.01379581885
2571000000 0.1327050082 -0.01539216732
2572000000 0.1272713321 -0.01689613987
2573000000 0.1217346836 -0.01830341052
2574000000 0.1160954138 -0.01960947693
2575000000 0.1103541133 -0.02080967438
2576000000 0.1045116326 -0.02189919191
2577000000 0.09856910091 -0.02287309064
2578000000 0.09252794358 -0.02372632395
2579000000 0.08638989821 -0.02445375958
2580000000 0.08015702829 -0.02505020337
2581000000 0.07383173512 -0.02551042444
2582000000 0.06741676736 -0.02582918177
2583000000 0.06091522835 -0.02600125178
2584000000 0.0543305809 -0.0260214568
2585000000 0.04766664958 -0.02588469422
2586000000 0.04092762037 -0.02558596602
2587000000 0.03411803777 -0.02512040842
2588000000 0.02724279909 -0.02448332146
2589000000 0.02030714626 -0.02367019829
2590000000 0.01331665485 -0.02267675378
2591000000 0.006277220656 -0.02149895239
2592000000 -0.0008049562947 -0.02013303486
2593000000 -0.00792339009 -0.01857554366
2594000000 -0.01507132957 -0.01682334693
2595000000 -0.02224178108 -0.01487366063
2596000000 -0.02942753322 -0.01272406873
2597000000 -0.03662118331 -0.01037254138
2598000000 -0.04381516553 -0.007817450722
2599000000 -0.05100178039 -0.005057584305
2600000000 -0.05817322533 -0.002092155949
2601000000 -0.06532162625 0.001079186022
2602000000 -0.07243906977 0.004456353283
2603000000 -0.07951763577 0.008038814781
2604000000 -0.0865494302 0.01182559682
2605000000 -0.09352661774 0.01581528595
2606000000 -0.1004414541 0.02000603468
2607000000 -0.1072863179 0.02439556988
2608000000 -0.114053741 0.02898120394
2609000000 -0.1207364388 0.03375984848
2610000000 -0.1273273384 0.03872803054
2611000000 -0.1338196052 0.04388191112
2612000000 -0.1402066683 0.04921730591
2613000000 -0.1464822433 0.05472970803
2614000000 -0.1526403534 0.06041431257
2615000000 -0.1586753479 0.06626604283
2616000000 -0.1645819185 0.07227957778
2617000000 -0.1703551131 0.07844938087
2618000000 -0.1759903466 0.08476972963
2619000000 -0.1814834092 0.09123474594
2620000000 -0.1868304723 0.09783842677
2621000000 -0.192028091 0.104574675
2622000000 -0.1970732044 0.1114373303
2623000000 -0.2019631327 0.1184201991
2624000000 -0.2066955722 0.125517085
2625000000 -0.2112685871 0.1327218171
2626000000 -0.2156805991 0.1400282779
2627000000 -0.219930375 0.14743043
2628000000 -0.2240170112 0.1549223408
2629000000 -0.2279399171 0.1624982059
2630000000 -0.231698796 0.1701523702
2631000000 -0.2352936243 0.177879347
2632000000 -0.2387246301 0.1856738355
2633000000 -0.2419922692 0.1935307348
2634000000 -0.2450972014 0.2014451566
2635000000 -0.2480402652 0.2094124348
2636000000 -0.2508224523 0.2174281325
2637000000 -0.2534448819 0.2254880469
2638000000 -0.2559087748 0.2335882111
2639000000 -0.258215428 0.2417248936
2640000000 -0.2603661896 0.2498945952
2641000000 -0.2623624346 0.2580940435
2642000000 -0.2642055413 0.2663201854
2643000000 -0.2658968695 0.2745701766
2644000000 -0.2674377393 0.2828413698
2645000000 -0.2688294127 0.2911313003
2646000000 -0.2700730753 0.2994376707
2647000000 -0.2711698216 0.307758333
2648000000 -0.2721206412 0.3160912702
2649000000 -0.2729264078 0.3244345764
2650000000 -0.27358787 0.3327864359
2651000000 -0.274105645 0.341145102
2652000000 -0.2744802145 0.3495088746
2653000000 -0.2747119225 0.357876079
2654000000 -0.2748009765 0.3662450431
2655000000 -0.2747474501 0.3746140762
2656000000 -0.274551289 0.3829814475
2657000000 -0.2742123181 0.3913453663
2658000000 -0.2737302517 0.399703962
2659000000 -0.2731047056 0.4080552664
2660000000 -0.2723352108 0.4163971969
2661000000 -0.2714212291 0.4247275415
2662000000 -0.2703621707 0.4330439452
2663000000 -0.2691574126 0.4413438992
2664000000 -0.2678063185 0.4496247311
2665000000 -0.26630826 0.4578835981
2666000000 -0.2646626379 0.4661174822
2667000000 -0.2628689045 0.4743231878
2668000000 -0.2609265862 0.4824973413
2669000000 -0.2588353058 0.4906363939
2670000000 -0.256594805 0.4987366262
2671000000 -0.2542049659 0.5067941551
2672000000 -0.2516658327 0.5148049439
2673000000 -0.2489776315 0.5227648133
2674000000 -0.2461407897 0.5306694558
2675000000 -0.2431559536 0.5385144513
2676000000 -0.2400240047 0.5462952851
2677000000 -0.2367460738 0.5540073676
2678000000 -0.2333235542 0.5616460549
2679000000 -0.2297581114 0.5692066717
2680000000 -0.2260516919 0.5766845347
2681000000 -0.222206529 0.5840749772
2682000000 -0.2182251461 0.5913733743
2683000000 -0.2141103582 0.5985751686
2684000000 -0.20986527 0.6056758959
2685000000 -0.2054932724 0.6126712115
2686000000 -0.2009980358 0.6195569153
2687000000 -0.1963835011 0.6263289772
2688000000 -0.1916538683 0.632983561
2689000000 -0.1868135829 0.6395170478
2690000000 -0.1818673201 0.6459260584
2691000000 -0.1768199659 0.6522074731
2692000000 -0.171676598 0.6583584509
2693000000 -0.1664424632 0.6643764468
2694000000 -0.1611229543 0.6702592263
2695000000 -0.1557235849 0.6760048785
2696000000 -0.1502499631 0.6816118263
2697000000 -0.1447077649 0.6870788346
2698000000 -0.1391027058 0.692405016
2699000000 -0.1334405123 0.6975898332
2700000000 -0.127726894 0.7026330995
